*HEADING
ekate -> Abaqus interface
(c) 2016 Hoang-Giang Bui, Ruhr-University Bochum
*NODE
1,    0.00000,  200.00000,    0.00000
2,    0.00000,  190.00000,    0.00000
3,    0.00000,  180.00000,    0.00000
4,    0.00000,  170.00000,    0.00000
5,   31.28689,  197.53767,    0.00000
6,   30.64204,  187.77898,    0.00000
7,   29.38419,  177.94150,    0.00000
8,    0.00000,  160.00000,    0.00000
9,   27.66659,  168.04491,    0.00000
10,   25.64251,  158.10893,    0.00000
11,    0.00000,  150.00000,    0.00000
12,   23.46517,  148.15325,    0.00000
13,    0.00000,  140.00000,    0.00000
14,   61.80340,  190.21130,    0.00000
15,   60.17164,  181.11486,    0.00000
16,   57.56761,  171.74233,    0.00000
17,   21.28783,  138.19757,    0.00000
18,   54.23437,  162.16274,    0.00000
19,   50.41499,  152.44512,    0.00000
20,    0.00000,  130.00000,    0.00000
21,   46.35255,  142.65848,    0.00000
22,   19.26375,  128.26159,    0.00000
23,   42.29010,  132.87183,    0.00000
24,    0.00000,  120.00000,    0.00000
25,   17.54615,  118.36500,    0.00000
26,   38.47073,  123.15421,    0.00000
27,    0.00000,  110.00000,    0.00000
28,   79.14020,  152.40726,    0.00000
29,   83.96037,  161.45107,    0.00000
30,   87.93975,  170.09366,    0.00000
31,   16.28830,  108.52752,    0.00000
32,   73.75952,  143.09599,    0.00000
33,   35.13749,  113.57463,    0.00000
34,   90.79810,  178.20130,    0.00000
35,   68.09857,  133.65098,    0.00000
36,   62.43763,  124.20597,    0.00000
37,    0.00000,  100.00000,    0.00000
38,   32.53346,  104.20210,    0.00000
39,   15.64345,   98.76883,    0.00000
40,   57.05695,  114.89469,    0.00000
41,   52.23678,  105.85089,    0.00000
42,   30.90170,   95.10565,    0.00000
43,   48.25740,   97.20830,    0.00000
44,   95.14879,  130.24422,    0.00000
45,   88.16779,  121.35255,    0.00000
46,  101.85401,  138.93551,    0.00000
47,   81.18678,  112.46088,    0.00000
48,   45.39905,   89.10065,    0.00000
49,  108.00765,  147.22606,    0.00000
50,   74.48157,  103.76959,    0.00000
51,  113.33393,  154.91548,    0.00000
52,  117.55705,  161.80340,    0.00000
53,   68.32793,   95.47904,    0.00000
54,   63.00165,   87.78962,    0.00000
55,   58.77853,   80.90170,    0.00000
56,   98.03216,   97.96951,    0.00000
57,  106.06602,  106.06602,    0.00000
58,   90.23900,   90.12937,    0.00000
59,  114.09987,  114.16252,    0.00000
60,   82.92723,   82.80194,    0.00000
61,  121.89303,  122.00267,    0.00000
62,   76.33756,   76.24359,    0.00000
63,  129.20480,  129.33009,    0.00000
64,   70.71068,   70.71068,    0.00000
65,  135.79447,  135.88844,    0.00000
66,  141.42136,  141.42136,    0.00000
67,   80.90170,   58.77853,    0.00000
68,   95.59344,   68.21353,    0.00000
69,   87.87542,   62.91585,    0.00000
70,  103.86968,   74.38147,    0.00000
71,  112.51808,   81.12959,    0.00000
72,  121.35255,   88.16779,    0.00000
73,  130.18702,   95.20599,    0.00000
74,  138.83542,  101.95410,    0.00000
75,  147.11166,  108.12204,    0.00000
76,  154.82968,  113.41972,    0.00000
77,   89.10065,   45.39905,    0.00000
78,   97.27216,   48.19354,    0.00000
79,  161.80340,  117.55705,    0.00000
80,  105.93604,   52.15163,    0.00000
81,  114.96920,   56.98244,    0.00000
82,  124.24854,   62.39506,    0.00000
83,  133.65098,   68.09857,    0.00000
84,  143.05342,   73.80209,    0.00000
85,   95.10565,   30.90170,    0.00000
86,  152.33276,   79.21471,    0.00000
87,  104.23745,   32.49811,    0.00000
88,  161.36592,   84.04552,    0.00000
89,  113.62176,   35.09036,    0.00000
90,  123.19545,   38.42949,    0.00000
91,  170.02980,   88.00361,    0.00000
92,  132.89540,   42.26654,    0.00000
93,  178.20130,   90.79810,    0.00000
94,   98.76883,   15.64345,    0.00000
95,  142.65848,   46.35255,    0.00000
96,  108.53797,   16.27785,    0.00000
97,  152.42155,   50.43856,    0.00000
98,  118.37894,   17.53221,    0.00000
99,  162.12150,   54.27561,    0.00000
100,  128.27378,   19.25155,    0.00000
101,  171.69520,   57.61474,    0.00000
102,  100.00000,    0.00000,    0.00000
103,  138.20454,   21.28086,    0.00000
104,  110.00000,    0.00000,    0.00000
105,  181.07951,   60.20699,    0.00000
106,  148.15325,   23.46517,    0.00000
107,  120.00000,    0.00000,    0.00000
108,  190.21130,   61.80340,    0.00000
109,  158.10196,   25.64948,    0.00000
110,  130.00000,    0.00000,    0.00000
111,  168.03272,   27.67879,    0.00000
112,  140.00000,    0.00000,    0.00000
113,  177.92756,   29.39812,    0.00000
114,  150.00000,    0.00000,    0.00000
115,  187.76853,   30.65249,    0.00000
116,  160.00000,    0.00000,    0.00000
117,  197.53767,   31.28689,    0.00000
118,  170.00000,    0.00000,    0.00000
119,  180.00000,    0.00000,    0.00000
120,  190.00000,    0.00000,    0.00000
121,  200.00000,    0.00000,    0.00000
**
*ELEMENT, TYPE=S4
1, 104, 96, 94, 102
*ELEMENT, TYPE=S4
2, 107, 98, 96, 104
*ELEMENT, TYPE=S4
3, 110, 100, 98, 107
*ELEMENT, TYPE=S4
4, 112, 103, 100, 110
*ELEMENT, TYPE=S4
5, 114, 106, 103, 112
*ELEMENT, TYPE=S4
6, 116, 109, 106, 114
*ELEMENT, TYPE=S4
7, 118, 111, 109, 116
*ELEMENT, TYPE=S4
8, 119, 113, 111, 118
*ELEMENT, TYPE=S4
9, 120, 115, 113, 119
*ELEMENT, TYPE=S4
10, 121, 117, 115, 120
*ELEMENT, TYPE=S4
11, 96, 87, 85, 94
*ELEMENT, TYPE=S4
12, 98, 89, 87, 96
*ELEMENT, TYPE=S4
13, 100, 90, 89, 98
*ELEMENT, TYPE=S4
14, 103, 92, 90, 100
*ELEMENT, TYPE=S4
15, 106, 95, 92, 103
*ELEMENT, TYPE=S4
16, 109, 97, 95, 106
*ELEMENT, TYPE=S4
17, 111, 99, 97, 109
*ELEMENT, TYPE=S4
18, 113, 101, 99, 111
*ELEMENT, TYPE=S4
19, 115, 105, 101, 113
*ELEMENT, TYPE=S4
20, 117, 108, 105, 115
*ELEMENT, TYPE=S4
21, 87, 78, 77, 85
*ELEMENT, TYPE=S4
22, 89, 80, 78, 87
*ELEMENT, TYPE=S4
23, 90, 81, 80, 89
*ELEMENT, TYPE=S4
24, 92, 82, 81, 90
*ELEMENT, TYPE=S4
25, 95, 83, 82, 92
*ELEMENT, TYPE=S4
26, 97, 84, 83, 95
*ELEMENT, TYPE=S4
27, 99, 86, 84, 97
*ELEMENT, TYPE=S4
28, 101, 88, 86, 99
*ELEMENT, TYPE=S4
29, 105, 91, 88, 101
*ELEMENT, TYPE=S4
30, 108, 93, 91, 105
*ELEMENT, TYPE=S4
31, 78, 69, 67, 77
*ELEMENT, TYPE=S4
32, 80, 68, 69, 78
*ELEMENT, TYPE=S4
33, 81, 70, 68, 80
*ELEMENT, TYPE=S4
34, 82, 71, 70, 81
*ELEMENT, TYPE=S4
35, 83, 72, 71, 82
*ELEMENT, TYPE=S4
36, 84, 73, 72, 83
*ELEMENT, TYPE=S4
37, 86, 74, 73, 84
*ELEMENT, TYPE=S4
38, 88, 75, 74, 86
*ELEMENT, TYPE=S4
39, 91, 76, 75, 88
*ELEMENT, TYPE=S4
40, 93, 79, 76, 91
*ELEMENT, TYPE=S4
41, 69, 62, 64, 67
*ELEMENT, TYPE=S4
42, 68, 60, 62, 69
*ELEMENT, TYPE=S4
43, 70, 58, 60, 68
*ELEMENT, TYPE=S4
44, 71, 56, 58, 70
*ELEMENT, TYPE=S4
45, 72, 57, 56, 71
*ELEMENT, TYPE=S4
46, 73, 59, 57, 72
*ELEMENT, TYPE=S4
47, 74, 61, 59, 73
*ELEMENT, TYPE=S4
48, 75, 63, 61, 74
*ELEMENT, TYPE=S4
49, 76, 65, 63, 75
*ELEMENT, TYPE=S4
50, 79, 66, 65, 76
*ELEMENT, TYPE=S4
51, 62, 54, 55, 64
*ELEMENT, TYPE=S4
52, 60, 53, 54, 62
*ELEMENT, TYPE=S4
53, 58, 50, 53, 60
*ELEMENT, TYPE=S4
54, 56, 47, 50, 58
*ELEMENT, TYPE=S4
55, 57, 45, 47, 56
*ELEMENT, TYPE=S4
56, 59, 44, 45, 57
*ELEMENT, TYPE=S4
57, 61, 46, 44, 59
*ELEMENT, TYPE=S4
58, 63, 49, 46, 61
*ELEMENT, TYPE=S4
59, 65, 51, 49, 63
*ELEMENT, TYPE=S4
60, 66, 52, 51, 65
*ELEMENT, TYPE=S4
61, 54, 43, 48, 55
*ELEMENT, TYPE=S4
62, 53, 41, 43, 54
*ELEMENT, TYPE=S4
63, 50, 40, 41, 53
*ELEMENT, TYPE=S4
64, 47, 36, 40, 50
*ELEMENT, TYPE=S4
65, 45, 35, 36, 47
*ELEMENT, TYPE=S4
66, 44, 32, 35, 45
*ELEMENT, TYPE=S4
67, 46, 28, 32, 44
*ELEMENT, TYPE=S4
68, 49, 29, 28, 46
*ELEMENT, TYPE=S4
69, 51, 30, 29, 49
*ELEMENT, TYPE=S4
70, 52, 34, 30, 51
*ELEMENT, TYPE=S4
71, 43, 38, 42, 48
*ELEMENT, TYPE=S4
72, 41, 33, 38, 43
*ELEMENT, TYPE=S4
73, 40, 26, 33, 41
*ELEMENT, TYPE=S4
74, 36, 23, 26, 40
*ELEMENT, TYPE=S4
75, 35, 21, 23, 36
*ELEMENT, TYPE=S4
76, 32, 19, 21, 35
*ELEMENT, TYPE=S4
77, 28, 18, 19, 32
*ELEMENT, TYPE=S4
78, 29, 16, 18, 28
*ELEMENT, TYPE=S4
79, 30, 15, 16, 29
*ELEMENT, TYPE=S4
80, 34, 14, 15, 30
*ELEMENT, TYPE=S4
81, 38, 31, 39, 42
*ELEMENT, TYPE=S4
82, 33, 25, 31, 38
*ELEMENT, TYPE=S4
83, 26, 22, 25, 33
*ELEMENT, TYPE=S4
84, 23, 17, 22, 26
*ELEMENT, TYPE=S4
85, 21, 12, 17, 23
*ELEMENT, TYPE=S4
86, 19, 10, 12, 21
*ELEMENT, TYPE=S4
87, 18, 9, 10, 19
*ELEMENT, TYPE=S4
88, 16, 7, 9, 18
*ELEMENT, TYPE=S4
89, 15, 6, 7, 16
*ELEMENT, TYPE=S4
90, 14, 5, 6, 15
*ELEMENT, TYPE=S4
91, 31, 27, 37, 39
*ELEMENT, TYPE=S4
92, 25, 24, 27, 31
*ELEMENT, TYPE=S4
93, 22, 20, 24, 25
*ELEMENT, TYPE=S4
94, 17, 13, 20, 22
*ELEMENT, TYPE=S4
95, 12, 11, 13, 17
*ELEMENT, TYPE=S4
96, 10, 8, 11, 12
*ELEMENT, TYPE=S4
97, 9, 4, 8, 10
*ELEMENT, TYPE=S4
98, 7, 3, 4, 9
*ELEMENT, TYPE=S4
99, 6, 2, 3, 7
*ELEMENT, TYPE=S4
100, 5, 1, 2, 6
*ELEMENT, TYPE=B31
101, 102, 94
*ELEMENT, TYPE=B31
102, 94, 85
*ELEMENT, TYPE=B31
103, 85, 77
*ELEMENT, TYPE=B31
104, 77, 67
*ELEMENT, TYPE=B31
105, 67, 64
*ELEMENT, TYPE=B31
106, 64, 55
*ELEMENT, TYPE=B31
107, 55, 48
*ELEMENT, TYPE=B31
108, 48, 42
*ELEMENT, TYPE=B31
109, 42, 39
*ELEMENT, TYPE=B31
110, 39, 37
**

*MATERIAL,NAME=TrussProperties
*MATERIAL,NAME=Isotropic3D
*MATERIAL,NAME=DruckerPrager
*MATERIAL,NAME=UserDefined
*MATERIAL,NAME=IsotropicDamage3D
*MATERIAL,NAME=GroutingMortar
*MATERIAL,NAME=TutorialDamageModel
*MATERIAL,NAME=Load

*ELSET,ELSET=Isotropic3D_Set
1,
2,
3,
4,
5,
6,
7,
8,
9,
10,
11,
12,
13,
14,
15,
16,
17,
18,
19,
20,
21,
22,
23,
24,
25,
26,
27,
28,
29,
30,
31,
32,
33,
34,
35,
36,
37,
38,
39,
40,
41,
42,
43,
44,
45,
46,
47,
48,
49,
50,
51,
52,
53,
54,
55,
56,
57,
58,
59,
60,
61,
62,
63,
64,
65,
66,
67,
68,
69,
70,
71,
72,
73,
74,
75,
76,
77,
78,
79,
80,
81,
82,
83,
84,
85,
86,
87,
88,
89,
90,
91,
92,
93,
94,
95,
96,
97,
98,
99,
100,
*ELSET,ELSET=Load_Set
101,
102,
103,
104,
105,
106,
107,
108,
109,
110,

