*HEADING
sd -> Abaqus interface
(c) 2016 Hoang-Giang Bui, Ruhr-University Bochum
*NODE
1,    0.00000,   20.00000,    0.00000
2,    0.50000,   20.00000,    0.00000
3,    0.00000,   19.50000,    0.00000
4,    0.56630,   19.29167,    0.00000
5,    1.00000,   20.00000,    0.00000
6,    0.00000,   19.00000,    0.00000
7,    1.11027,   19.50000,    0.00000
8,    0.67726,   18.75000,    0.00000
9,    1.11027,   19.00000,    0.00000
10,    1.50000,   20.00000,    0.00000
11,    0.00000,   18.50000,    0.00000
12,    1.54329,   19.25000,    0.00000
13,    1.11027,   18.50000,    0.00000
14,    0.67726,   18.25000,    0.00000
15,    1.54329,   18.75000,    0.00000
16,    2.00000,   20.00000,    0.00000
17,    0.00000,   18.00000,    0.00000
18,    1.97630,   19.50000,    0.00000
19,    1.97630,   19.00000,    0.00000
20,    1.11027,   18.00000,    0.00000
21,    1.54329,   18.25000,    0.00000
22,    0.67726,   17.75000,    0.00000
23,    1.97630,   18.50000,    0.00000
24,    2.50000,   20.00000,    0.00000
25,    0.00000,   17.50000,    0.00000
26,    2.42443,   19.29167,    0.00000
27,    2.40931,   18.75000,    0.00000
28,    1.54329,   17.75000,    0.00000
29,    1.11027,   17.50000,    0.00000
30,    1.97630,   18.00000,    0.00000
31,    0.67726,   17.25000,    0.00000
32,    2.84232,   19.50000,    0.00000
33,    2.40931,   18.25000,    0.00000
34,    3.00000,   20.00000,    0.00000
35,    0.00000,   17.00000,    0.00000
36,    2.84232,   19.00000,    0.00000
37,    1.54329,   17.25000,    0.00000
38,    1.97630,   17.50000,    0.00000
39,    1.11027,   17.00000,    0.00000
40,    2.84232,   18.50000,    0.00000
41,    2.40931,   17.75000,    0.00000
42,    0.67726,   16.75000,    0.00000
43,    3.26810,   19.39286,    0.00000
44,    2.84232,   18.00000,    0.00000
45,    3.50000,   20.00000,    0.00000
46,    0.00000,   16.50000,    0.00000
47,    3.27534,   18.75000,    0.00000
48,    1.97630,   17.00000,    0.00000
49,    1.54329,   16.75000,    0.00000
50,    2.40931,   17.25000,    0.00000
51,    1.11027,   16.50000,    0.00000
52,    3.27534,   18.25000,    0.00000
53,    3.71885,   19.53690,    0.00000
54,    2.84232,   17.50000,    0.00000
55,    0.67726,   16.25000,    0.00000
56,    3.70835,   19.00000,    0.00000
57,    3.27534,   17.75000,    0.00000
58,    4.00000,   20.00000,    0.00000
59,    0.00000,   16.00000,    0.00000
60,    3.70835,   18.50000,    0.00000
61,    1.97630,   16.50000,    0.00000
62,    2.40931,   16.75000,    0.00000
63,    1.54329,   16.25000,    0.00000
64,    2.84232,   17.00000,    0.00000
65,    1.11027,   16.00000,    0.00000
66,    4.11780,   19.29167,    0.00000
67,    3.70835,   18.00000,    0.00000
68,    3.27534,   17.25000,    0.00000
69,    0.67726,   15.75000,    0.00000
70,    4.14136,   18.75000,    0.00000
71,    2.40931,   16.25000,    0.00000
72,    1.97630,   16.00000,    0.00000
73,    3.70835,   17.50000,    0.00000
74,    4.14136,   18.25000,    0.00000
75,    4.50000,   20.00000,    0.00000
76,    0.00000,   15.50000,    0.00000
77,    2.84232,   16.50000,    0.00000
78,    1.54329,   15.75000,    0.00000
79,    4.57437,   19.50000,    0.00000
80,    3.27534,   16.75000,    0.00000
81,    1.11027,   15.50000,    0.00000
82,    4.57437,   19.00000,    0.00000
83,    4.14136,   17.75000,    0.00000
84,    3.70835,   17.00000,    0.00000
85,    0.67726,   15.25000,    0.00000
86,    4.57437,   18.50000,    0.00000
87,    2.40931,   15.75000,    0.00000
88,    2.84232,   16.00000,    0.00000
89,    1.97630,   15.50000,    0.00000
90,    4.14136,   17.25000,    0.00000
91,    3.27534,   16.25000,    0.00000
92,    4.57437,   18.00000,    0.00000
93,    1.54329,   15.25000,    0.00000
94,    5.00000,   20.00000,    0.00000
95,    0.00000,   15.00000,    0.00000
96,    5.00739,   19.25000,    0.00000
97,    3.70835,   16.50000,    0.00000
98,    1.11027,   15.00000,    0.00000
99,    5.00739,   18.75000,    0.00000
100,    4.57437,   17.50000,    0.00000
101,    4.14136,   16.75000,    0.00000
102,    0.67726,   14.75000,    0.00000
103,    5.00739,   18.25000,    0.00000
104,    2.84232,   15.50000,    0.00000
105,    2.40931,   15.25000,    0.00000
106,    3.27534,   15.75000,    0.00000
107,    1.97630,   15.00000,    0.00000
108,    3.70835,   16.00000,    0.00000
109,    5.44040,   19.50000,    0.00000
110,    4.57437,   17.00000,    0.00000
111,    1.54329,   14.75000,    0.00000
112,    5.00739,   17.75000,    0.00000
113,    5.50000,   20.00000,    0.00000
114,    0.00000,   14.50000,    0.00000
115,    5.44040,   19.00000,    0.00000
116,    4.14136,   16.25000,    0.00000
117,    1.11027,   14.50000,    0.00000
118,    5.44040,   18.50000,    0.00000
119,    5.00739,   17.25000,    0.00000
120,    2.84232,   15.00000,    0.00000
121,    4.57437,   16.50000,    0.00000
122,    3.27534,   15.25000,    0.00000
123,    2.40931,   14.75000,    0.00000
124,    0.67726,   14.25000,    0.00000
125,    5.44040,   18.00000,    0.00000
126,    3.70835,   15.50000,    0.00000
127,    1.97630,   14.50000,    0.00000
128,    4.14136,   15.75000,    0.00000
129,    5.89451,   19.29167,    0.00000
130,    1.54329,   14.25000,    0.00000
131,    5.00739,   16.75000,    0.00000
132,    5.44040,   17.50000,    0.00000
133,    6.00000,   20.00000,    0.00000
134,    0.00000,   14.00000,    0.00000
135,    5.87341,   18.75000,    0.00000
136,    4.57437,   16.00000,    0.00000
137,    1.11027,   14.00000,    0.00000
138,    5.87341,   18.25000,    0.00000
139,    3.27534,   14.75000,    0.00000
140,    2.84232,   14.50000,    0.00000
141,    5.44040,   17.00000,    0.00000
142,    3.70835,   15.00000,    0.00000
143,    2.40931,   14.25000,    0.00000
144,    5.00739,   16.25000,    0.00000
145,    0.67726,   13.75000,    0.00000
146,    5.87341,   17.75000,    0.00000
147,    4.14136,   15.25000,    0.00000
148,    6.28868,   19.53690,    0.00000
149,    1.97630,   14.00000,    0.00000
150,    6.30642,   19.00000,    0.00000
151,    4.57437,   15.50000,    0.00000
152,    1.54329,   13.75000,    0.00000
153,    5.44040,   16.50000,    0.00000
154,    6.30642,   18.50000,    0.00000
155,    5.87341,   17.25000,    0.00000
156,    6.50000,   20.00000,    0.00000
157,    0.00000,   13.50000,    0.00000
158,    5.00739,   15.75000,    0.00000
159,    1.11027,   13.50000,    0.00000
160,    6.30642,   18.00000,    0.00000
161,    3.27534,   14.25000,    0.00000
162,    3.70835,   14.50000,    0.00000
163,    2.84232,   14.00000,    0.00000
164,    4.14136,   14.75000,    0.00000
165,    2.40931,   13.75000,    0.00000
166,    5.87341,   16.75000,    0.00000
167,    5.44040,   16.00000,    0.00000
168,    6.74246,   19.39286,    0.00000
169,    4.57437,   15.00000,    0.00000
170,    6.30642,   17.50000,    0.00000
171,    0.67726,   13.25000,    0.00000
172,    1.97630,   13.50000,    0.00000
173,    6.73944,   18.75000,    0.00000
174,    5.00739,   15.25000,    0.00000
175,    1.54329,   13.25000,    0.00000
176,    6.73944,   18.25000,    0.00000
177,    5.87341,   16.25000,    0.00000
178,    6.30642,   17.00000,    0.00000
179,    7.00000,   20.00000,    0.00000
180,    0.00000,   13.00000,    0.00000
181,    3.70835,   14.00000,    0.00000
182,    3.27534,   13.75000,    0.00000
183,    5.44040,   15.50000,    0.00000
184,    4.14136,   14.25000,    0.00000
185,    1.11027,   13.00000,    0.00000
186,    2.84232,   13.50000,    0.00000
187,    6.73944,   17.75000,    0.00000
188,    4.57437,   14.50000,    0.00000
189,    2.40931,   13.25000,    0.00000
190,    7.17245,   19.50000,    0.00000
191,    6.30642,   16.50000,    0.00000
192,    7.17245,   19.00000,    0.00000
193,    5.87341,   15.75000,    0.00000
194,    5.00739,   14.75000,    0.00000
195,    1.97630,   13.00000,    0.00000
196,    6.73944,   17.25000,    0.00000
197,    0.67726,   12.75000,    0.00000
198,    7.17245,   18.50000,    0.00000
199,    5.44040,   15.00000,    0.00000
200,    1.54329,   12.75000,    0.00000
201,    7.17245,   18.00000,    0.00000
202,    6.30642,   16.00000,    0.00000
203,    6.73944,   16.75000,    0.00000
204,    3.70835,   13.50000,    0.00000
205,    4.14136,   13.75000,    0.00000
206,    7.50000,   20.00000,    0.00000
207,    0.00000,   12.50000,    0.00000
208,    3.27534,   13.25000,    0.00000
209,    4.57437,   14.00000,    0.00000
210,    5.87341,   15.25000,    0.00000
211,    2.84232,   13.00000,    0.00000
212,    1.11027,   12.50000,    0.00000
213,    7.17245,   17.50000,    0.00000
214,    7.58789,   19.29167,    0.00000
215,    5.00739,   14.25000,    0.00000
216,    2.40931,   12.75000,    0.00000
217,    7.60546,   18.75000,    0.00000
218,    6.73944,   16.25000,    0.00000
219,    5.44040,   14.50000,    0.00000
220,    6.30642,   15.50000,    0.00000
221,    1.97630,   12.50000,    0.00000
222,    7.17245,   17.00000,    0.00000
223,    0.67726,   12.25000,    0.00000
224,    7.60546,   18.25000,    0.00000
225,    5.87341,   14.75000,    0.00000
226,    1.54329,   12.25000,    0.00000
227,    4.14136,   13.25000,    0.00000
228,    3.70835,   13.00000,    0.00000
229,    7.60546,   17.75000,    0.00000
230,    4.57437,   13.50000,    0.00000
231,    3.27534,   12.75000,    0.00000
232,    6.73944,   15.75000,    0.00000
233,    7.17245,   16.50000,    0.00000
234,    8.00000,   20.00000,    0.00000
235,    0.00000,   12.00000,    0.00000
236,    5.00739,   13.75000,    0.00000
237,    2.84232,   12.50000,    0.00000
238,    6.30642,   15.00000,    0.00000
239,    8.03848,   19.50000,    0.00000
240,    1.11027,   12.00000,    0.00000
241,    7.60546,   17.25000,    0.00000
242,    5.44040,   14.00000,    0.00000
243,    8.03848,   19.00000,    0.00000
244,    2.40931,   12.25000,    0.00000
245,    8.03848,   18.50000,    0.00000
246,    7.17245,   16.00000,    0.00000
247,    5.87341,   14.25000,    0.00000
248,    1.97630,   12.00000,    0.00000
249,    6.73944,   15.25000,    0.00000
250,    7.60546,   16.75000,    0.00000
251,    0.67726,   11.75000,    0.00000
252,    8.03848,   18.00000,    0.00000
253,    4.14136,   12.75000,    0.00000
254,    4.57437,   13.00000,    0.00000
255,    3.70835,   12.50000,    0.00000
256,    6.30642,   14.50000,    0.00000
257,    1.54329,   11.75000,    0.00000
258,    5.00739,   13.25000,    0.00000
259,    3.27534,   12.25000,    0.00000
260,    8.03848,   17.50000,    0.00000
261,    7.17245,   15.50000,    0.00000
262,    5.44040,   13.50000,    0.00000
263,    7.60546,   16.25000,    0.00000
264,    2.84232,   12.00000,    0.00000
265,    8.50000,   20.00000,    0.00000
266,    0.00000,   11.50000,    0.00000
267,    8.47149,   19.25000,    0.00000
268,    6.73944,   14.75000,    0.00000
269,    8.47149,   18.75000,    0.00000
270,    1.11027,   11.50000,    0.00000
271,    5.87341,   13.75000,    0.00000
272,    8.03848,   17.00000,    0.00000
273,    2.40931,   11.75000,    0.00000
274,    8.47149,   18.25000,    0.00000
275,    6.30642,   14.00000,    0.00000
276,    7.60546,   15.75000,    0.00000
277,    1.97630,   11.50000,    0.00000
278,    7.17245,   15.00000,    0.00000
279,    8.47149,   17.75000,    0.00000
280,    8.03848,   16.50000,    0.00000
281,    0.67726,   11.25000,    0.00000
282,    4.57437,   12.50000,    0.00000
283,    4.14136,   12.25000,    0.00000
284,    5.00739,   12.75000,    0.00000
285,    3.70835,   12.00000,    0.00000
286,    6.73944,   14.25000,    0.00000
287,    5.44040,   13.00000,    0.00000
288,    3.27534,   11.75000,    0.00000
289,    1.54329,   11.25000,    0.00000
290,    8.47149,   17.25000,    0.00000
291,    8.90450,   19.50000,    0.00000
292,    5.87341,   13.25000,    0.00000
293,    8.90450,   19.00000,    0.00000
294,    2.84232,   11.50000,    0.00000
295,    7.60546,   15.25000,    0.00000
296,    8.03848,   16.00000,    0.00000
297,    9.00000,   20.00000,    0.00000
298,    0.00000,   11.00000,    0.00000
299,    8.90450,   18.50000,    0.00000
300,    7.17245,   14.50000,    0.00000
301,    6.30642,   13.50000,    0.00000
302,    1.11027,   11.00000,    0.00000
303,    8.47149,   16.75000,    0.00000
304,    2.40931,   11.25000,    0.00000
305,    8.90450,   18.00000,    0.00000
306,    6.73944,   13.75000,    0.00000
307,    8.03848,   15.50000,    0.00000
308,    1.97630,   11.00000,    0.00000
309,    4.57437,   12.00000,    0.00000
310,    5.00739,   12.25000,    0.00000
311,    4.14136,   11.75000,    0.00000
312,    7.60546,   14.75000,    0.00000
313,    8.90450,   17.50000,    0.00000
314,    8.47149,   16.25000,    0.00000
315,    5.44040,   12.50000,    0.00000
316,    3.70835,   11.50000,    0.00000
317,    0.67726,   10.75000,    0.00000
318,    5.87341,   12.75000,    0.00000
319,    3.27534,   11.25000,    0.00000
320,    7.17245,   14.00000,    0.00000
321,    1.54329,   10.75000,    0.00000
322,    9.36459,   19.29167,    0.00000
323,    8.90450,   17.00000,    0.00000
324,    9.33751,   18.75000,    0.00000
325,    6.30642,   13.00000,    0.00000
326,    2.84232,   11.00000,    0.00000
327,    8.03848,   15.00000,    0.00000
328,    8.47149,   15.75000,    0.00000
329,    9.50000,   20.00000,    0.00000
330,    0.00000,   10.50000,    0.00000
331,    9.33751,   18.25000,    0.00000
332,    7.60546,   14.25000,    0.00000
333,    6.73944,   13.25000,    0.00000
334,    2.40931,   10.75000,    0.00000
335,    1.11027,   10.50000,    0.00000
336,    8.90450,   16.50000,    0.00000
337,    9.33751,   17.75000,    0.00000
338,    5.00739,   11.75000,    0.00000
339,    4.57437,   11.50000,    0.00000
340,    5.44040,   12.00000,    0.00000
341,    7.17245,   13.50000,    0.00000
342,    4.14136,   11.25000,    0.00000
343,    1.97630,   10.50000,    0.00000
344,    8.47149,   15.25000,    0.00000
345,    5.87341,   12.25000,    0.00000
346,    9.33751,   17.25000,    0.00000
347,    3.70835,   11.00000,    0.00000
348,    8.03848,   14.50000,    0.00000
349,    8.90450,   16.00000,    0.00000
350,    0.67726,   10.25000,    0.00000
351,    9.77218,   19.53778,    0.00000
352,    6.30642,   12.50000,    0.00000
353,    3.27534,   10.75000,    0.00000
354,    9.77053,   19.00000,    0.00000
355,    7.60546,   13.75000,    0.00000
356,    1.54329,   10.25000,    0.00000
357,    9.77053,   18.50000,    0.00000
358,    9.33751,   16.75000,    0.00000
359,    6.73944,   12.75000,    0.00000
360,    2.84232,   10.50000,    0.00000
361,    8.47149,   14.75000,    0.00000
362,    9.77053,   18.00000,    0.00000
363,    8.90450,   15.50000,    0.00000
364,   10.00000,   20.00000,    0.00000
365,    0.00000,   10.00000,    0.00000
366,    7.17245,   13.00000,    0.00000
367,    8.03848,   14.00000,    0.00000
368,    2.40931,   10.25000,    0.00000
369,    1.11027,   10.00000,    0.00000
370,    9.33751,   16.25000,    0.00000
371,    5.00739,   11.25000,    0.00000
372,    9.77053,   17.50000,    0.00000
373,    5.44040,   11.50000,    0.00000
374,    4.57437,   11.00000,    0.00000
375,    5.87341,   11.75000,    0.00000
376,    4.14136,   10.75000,    0.00000
377,    7.60546,   13.25000,    0.00000
378,    6.30642,   12.00000,    0.00000
379,    1.97630,   10.00000,    0.00000
380,    3.70835,   10.50000,    0.00000
381,    8.90450,   15.00000,    0.00000
382,    9.77053,   17.00000,    0.00000
383,    8.47149,   14.25000,    0.00000
384,   10.22578,   19.39721,    0.00000
385,    9.33751,   15.75000,    0.00000
386,    6.73944,   12.25000,    0.00000
387,    0.67726,    9.75000,    0.00000
388,   10.20354,   18.75000,    0.00000
389,    3.27534,   10.25000,    0.00000
390,    8.03848,   13.50000,    0.00000
391,   10.20354,   18.25000,    0.00000
392,    1.54329,    9.75000,    0.00000
393,    7.17245,   12.50000,    0.00000
394,    9.77053,   16.50000,    0.00000
395,    2.84232,   10.00000,    0.00000
396,   10.20354,   17.75000,    0.00000
397,    8.90450,   14.50000,    0.00000
398,    9.33751,   15.25000,    0.00000
399,   10.50000,   20.00000,    0.00000
400,    0.00000,    9.50000,    0.00000
401,    7.60546,   12.75000,    0.00000
402,    5.44040,   11.00000,    0.00000
403,    5.00739,   10.75000,    0.00000
404,    8.47149,   13.75000,    0.00000
405,    2.40931,    9.75000,    0.00000
406,    5.87341,   11.25000,    0.00000
407,    4.57437,   10.50000,    0.00000
408,    9.77053,   16.00000,    0.00000
409,    1.11027,    9.50000,    0.00000
410,   10.20354,   17.25000,    0.00000
411,    6.30642,   11.50000,    0.00000
412,    4.14136,   10.25000,    0.00000
413,    6.73944,   11.75000,    0.00000
414,    8.03848,   13.00000,    0.00000
415,    3.70835,   10.00000,    0.00000
416,   10.63655,   19.00000,    0.00000
417,    1.97630,    9.50000,    0.00000
418,   10.20354,   16.75000,    0.00000
419,   10.69931,   19.53049,    0.00000
420,    9.33751,   14.75000,    0.00000
421,    8.90450,   14.00000,    0.00000
422,   10.63655,   18.50000,    0.00000
423,    7.17245,   12.00000,    0.00000
424,    9.77053,   15.50000,    0.00000
425,    3.27534,    9.75000,    0.00000
426,    0.67726,    9.25000,    0.00000
427,   10.63655,   18.00000,    0.00000
428,    8.47149,   13.25000,    0.00000
429,    7.60546,   12.25000,    0.00000
430,    1.54329,    9.25000,    0.00000
431,   10.20354,   16.25000,    0.00000
432,    2.84232,    9.50000,    0.00000
433,   10.63655,   17.50000,    0.00000
434,    5.44040,   10.50000,    0.00000
435,    5.87341,   10.75000,    0.00000
436,    5.00739,   10.25000,    0.00000
437,    9.33751,   14.25000,    0.00000
438,    9.77053,   15.00000,    0.00000
439,    6.30642,   11.00000,    0.00000
440,    8.03848,   12.50000,    0.00000
441,    4.57437,   10.00000,    0.00000
442,   11.00000,   20.00000,    0.00000
443,    0.00000,    9.00000,    0.00000
444,    2.40931,    9.25000,    0.00000
445,    8.90450,   13.50000,    0.00000
446,    6.73944,   11.25000,    0.00000
447,   10.63655,   17.00000,    0.00000
448,   10.20354,   15.75000,    0.00000
449,    4.14136,    9.75000,    0.00000
450,    1.11027,    9.00000,    0.00000
451,    7.17245,   11.50000,    0.00000
452,    3.70835,    9.50000,    0.00000
453,    8.47149,   12.75000,    0.00000
454,   11.09471,   18.77909,    0.00000
455,   11.15646,   19.40243,    0.00000
456,    1.97630,    9.00000,    0.00000
457,   10.63655,   16.50000,    0.00000
458,   11.06956,   18.25000,    0.00000
459,    9.77053,   14.50000,    0.00000
460,    7.60546,   11.75000,    0.00000
461,    9.33751,   13.75000,    0.00000
462,    3.27534,    9.25000,    0.00000
463,   10.20354,   15.25000,    0.00000
464,    0.67726,    8.75000,    0.00000
465,   11.06956,   17.75000,    0.00000
466,    8.90450,   13.00000,    0.00000
467,    8.03848,   12.00000,    0.00000
468,    1.54329,    8.75000,    0.00000
469,    2.84232,    9.00000,    0.00000
470,   10.63655,   16.00000,    0.00000
471,    5.87341,   10.25000,    0.00000
472,    5.44040,   10.00000,    0.00000
473,    6.30642,   10.50000,    0.00000
474,   11.06956,   17.25000,    0.00000
475,    5.00739,    9.75000,    0.00000
476,    6.73944,   10.75000,    0.00000
477,    4.57437,    9.50000,    0.00000
478,    9.77053,   14.00000,    0.00000
479,   10.20354,   14.75000,    0.00000
480,    8.47149,   12.25000,    0.00000
481,   11.50000,   20.00000,    0.00000
482,    0.00000,    8.50000,    0.00000
483,    2.40931,    8.75000,    0.00000
484,    7.17245,   11.00000,    0.00000
485,    4.14136,    9.25000,    0.00000
486,    9.33751,   13.25000,    0.00000
487,   11.06956,   16.75000,    0.00000
488,   10.63655,   15.50000,    0.00000
489,    1.11027,    8.50000,    0.00000
490,    7.60546,   11.25000,    0.00000
491,   11.50258,   18.50000,    0.00000
492,   11.56655,   19.02214,    0.00000
493,    3.70835,    9.00000,    0.00000
494,    8.90450,   12.50000,    0.00000
495,    1.97630,    8.50000,    0.00000
496,   11.50258,   18.00000,    0.00000
497,   11.06956,   16.25000,    0.00000
498,    8.03848,   11.50000,    0.00000
499,   10.20354,   14.25000,    0.00000
500,    3.27534,    8.75000,    0.00000
501,    9.77053,   13.50000,    0.00000
502,   10.63655,   15.00000,    0.00000
503,   11.75000,   19.56699,    0.00000
504,    0.67726,    8.25000,    0.00000
505,   11.50258,   17.50000,    0.00000
506,    5.87341,    9.75000,    0.00000
507,    9.33751,   12.75000,    0.00000
508,    6.30642,   10.00000,    0.00000
509,    8.47149,   11.75000,    0.00000
510,    5.44040,    9.50000,    0.00000
511,    2.84232,    8.50000,    0.00000
512,    1.54329,    8.25000,    0.00000
513,    6.73944,   10.25000,    0.00000
514,   11.06956,   15.75000,    0.00000
515,    5.00739,    9.25000,    0.00000
516,   11.50258,   17.00000,    0.00000
517,    7.17245,   10.50000,    0.00000
518,    4.57437,    9.00000,    0.00000
519,   10.20354,   13.75000,    0.00000
520,    8.90450,   12.00000,    0.00000
521,   10.63655,   14.50000,    0.00000
522,    7.60546,   10.75000,    0.00000
523,    4.14136,    8.75000,    0.00000
524,    2.40931,    8.25000,    0.00000
525,   12.00000,   20.00000,    0.00000
526,    0.00000,    8.00000,    0.00000
527,   11.93559,   18.75000,    0.00000
528,   11.98507,   19.16340,    0.00000
529,    9.77053,   13.00000,    0.00000
530,   11.50258,   16.50000,    0.00000
531,   11.06956,   15.25000,    0.00000
532,    1.11027,    8.00000,    0.00000
533,   11.93559,   18.25000,    0.00000
534,    8.03848,   11.00000,    0.00000
535,    3.70835,    8.50000,    0.00000
536,    9.33751,   12.25000,    0.00000
537,   11.93559,   17.75000,    0.00000
538,    1.97630,    8.00000,    0.00000
539,   11.50258,   16.00000,    0.00000
540,    8.47149,   11.25000,    0.00000
541,    3.27534,    8.25000,    0.00000
542,   10.63655,   14.00000,    0.00000
543,   10.20354,   13.25000,    0.00000
544,   11.93559,   17.25000,    0.00000
545,    6.30642,    9.50000,    0.00000
546,    5.87341,    9.25000,    0.00000
547,   11.06956,   14.75000,    0.00000
548,    6.73944,    9.75000,    0.00000
549,    0.67726,    7.75000,    0.00000
550,    5.44040,    9.00000,    0.00000
551,    7.17245,   10.00000,    0.00000
552,    8.90450,   11.50000,    0.00000
553,    5.00739,    8.75000,    0.00000
554,    9.77053,   12.50000,    0.00000
555,    2.84232,    8.00000,    0.00000
556,    1.54329,    7.75000,    0.00000
557,   11.50258,   15.50000,    0.00000
558,    7.60546,   10.25000,    0.00000
559,   11.93559,   16.75000,    0.00000
560,    4.57437,    8.50000,    0.00000
561,   12.36860,   19.50000,    0.00000
562,   12.36860,   19.00000,    0.00000
563,    8.03848,   10.50000,    0.00000
564,    4.14136,    8.25000,    0.00000
565,   12.36860,   18.50000,    0.00000
566,    9.33751,   11.75000,    0.00000
567,   10.63655,   13.50000,    0.00000
568,   11.06956,   14.25000,    0.00000
569,    2.40931,    7.75000,    0.00000
570,   12.50000,   20.00000,    0.00000
571,    0.00000,    7.50000,    0.00000
572,   11.93559,   16.25000,    0.00000
573,   10.20354,   12.75000,    0.00000
574,   12.36860,   18.00000,    0.00000
575,   11.50258,   15.00000,    0.00000
576,    8.47149,   10.75000,    0.00000
577,    1.11027,    7.50000,    0.00000
578,    3.70835,    8.00000,    0.00000
579,   12.36860,   17.50000,    0.00000
580,    9.77053,   12.00000,    0.00000
581,    1.97630,    7.50000,    0.00000
582,    8.90450,   11.00000,    0.00000
583,   11.93559,   15.75000,    0.00000
584,    6.30642,    9.00000,    0.00000
585,    3.27534,    7.75000,    0.00000
586,    6.73944,    9.25000,    0.00000
587,    5.87341,    8.75000,    0.00000
588,   11.06956,   13.75000,    0.00000
589,    7.17245,    9.50000,    0.00000
590,    5.44040,    8.50000,    0.00000
591,   12.36860,   17.00000,    0.00000
592,   10.63655,   13.00000,    0.00000
593,   11.50258,   14.50000,    0.00000
594,    7.60546,    9.75000,    0.00000
595,    0.67726,    7.25000,    0.00000
596,    5.00739,    8.25000,    0.00000
597,    9.33751,   11.25000,    0.00000
598,   10.20354,   12.25000,    0.00000
599,    2.84232,    7.50000,    0.00000
600,    8.03848,   10.00000,    0.00000
601,    4.57437,    8.00000,    0.00000
602,    1.54329,    7.25000,    0.00000
603,   11.93559,   15.25000,    0.00000
604,   12.83468,   19.29167,    0.00000
605,   12.36860,   16.50000,    0.00000
606,   12.80162,   18.75000,    0.00000
607,    8.47149,   10.25000,    0.00000
608,   12.80162,   18.25000,    0.00000
609,    4.14136,    7.75000,    0.00000
610,    9.77053,   11.50000,    0.00000
611,   11.06956,   13.25000,    0.00000
612,   11.50258,   14.00000,    0.00000
613,    2.40931,    7.25000,    0.00000
614,   12.80162,   17.75000,    0.00000
615,   12.36860,   16.00000,    0.00000
616,   13.00000,   20.00000,    0.00000
617,    0.00000,    7.00000,    0.00000
618,   10.63655,   12.50000,    0.00000
619,    8.90450,   10.50000,    0.00000
620,    3.70835,    7.50000,    0.00000
621,   11.93559,   14.75000,    0.00000
622,    1.11027,    7.00000,    0.00000
623,   12.80162,   17.25000,    0.00000
624,    6.73944,    8.75000,    0.00000
625,    6.30642,    8.50000,    0.00000
626,   10.20354,   11.75000,    0.00000
627,    7.17245,    9.00000,    0.00000
628,    5.87341,    8.25000,    0.00000
629,    9.33751,   10.75000,    0.00000
630,    1.97630,    7.00000,    0.00000
631,   12.36860,   15.50000,    0.00000
632,    3.27534,    7.25000,    0.00000
633,    7.60546,    9.25000,    0.00000
634,    5.44040,    8.00000,    0.00000
635,   12.80162,   16.75000,    0.00000
636,   11.50258,   13.50000,    0.00000
637,    8.03848,    9.50000,    0.00000
638,   11.06956,   12.75000,    0.00000
639,    5.00739,    7.75000,    0.00000
640,   11.93559,   14.25000,    0.00000
641,   13.24180,   19.51667,    0.00000
642,    0.67726,    6.75000,    0.00000
643,   13.23463,   19.00000,    0.00000
644,    9.77053,   11.00000,    0.00000
645,    8.47149,    9.75000,    0.00000
646,    2.84232,    7.00000,    0.00000
647,   10.63655,   12.00000,    0.00000
648,    4.57437,    7.50000,    0.00000
649,   13.23463,   18.50000,    0.00000
650,   12.80162,   16.25000,    0.00000
651,    1.54329,    6.75000,    0.00000
652,   12.36860,   15.00000,    0.00000
653,   13.23463,   18.00000,    0.00000
654,    8.90450,   10.00000,    0.00000
655,    4.14136,    7.25000,    0.00000
656,   10.20354,   11.25000,    0.00000
657,   11.50258,   13.00000,    0.00000
658,    2.40931,    6.75000,    0.00000
659,   13.23463,   17.50000,    0.00000
660,   11.93559,   13.75000,    0.00000
661,   12.80162,   15.75000,    0.00000
662,   13.50000,   20.00000,    0.00000
663,    0.00000,    6.50000,    0.00000
664,    9.33751,   10.25000,    0.00000
665,   11.06956,   12.25000,    0.00000
666,    3.70835,    7.00000,    0.00000
667,   12.36860,   14.50000,    0.00000
668,    6.73944,    8.25000,    0.00000
669,    1.11027,    6.50000,    0.00000
670,    7.17245,    8.50000,    0.00000
671,    6.30642,    8.00000,    0.00000
672,   13.23463,   17.00000,    0.00000
673,    7.60546,    8.75000,    0.00000
674,    5.87341,    7.75000,    0.00000
675,   10.63655,   11.50000,    0.00000
676,    8.03848,    9.00000,    0.00000
677,    9.77053,   10.50000,    0.00000
678,    5.44040,    7.50000,    0.00000
679,    1.97630,    6.50000,    0.00000
680,    3.27534,    6.75000,    0.00000
681,   12.80162,   15.25000,    0.00000
682,   13.63970,   19.29167,    0.00000
683,    8.47149,    9.25000,    0.00000
684,   13.23463,   16.50000,    0.00000
685,    5.00739,    7.25000,    0.00000
686,   11.93559,   13.25000,    0.00000
687,   13.66764,   18.75000,    0.00000
688,   11.50258,   12.50000,    0.00000
689,   12.36860,   14.00000,    0.00000
690,    0.67726,    6.25000,    0.00000
691,    8.90450,    9.50000,    0.00000
692,   10.20354,   10.75000,    0.00000
693,   13.66764,   18.25000,    0.00000
694,    4.57437,    7.00000,    0.00000
695,    2.84232,    6.50000,    0.00000
696,   11.06956,   11.75000,    0.00000
697,   13.23463,   16.00000,    0.00000
698,   12.80162,   14.75000,    0.00000
699,    1.54329,    6.25000,    0.00000
700,   13.66764,   17.75000,    0.00000
701,    9.33751,    9.75000,    0.00000
702,    4.14136,    6.75000,    0.00000
703,   10.63655,   11.00000,    0.00000
704,   13.66764,   17.25000,    0.00000
705,    2.40931,    6.25000,    0.00000
706,   11.93559,   12.75000,    0.00000
707,   12.36860,   13.50000,    0.00000
708,   13.23463,   15.50000,    0.00000
709,    7.17245,    8.00000,    0.00000
710,    9.77053,   10.00000,    0.00000
711,    6.73944,    7.75000,    0.00000
712,    7.60546,    8.25000,    0.00000
713,   14.00000,   20.00000,    0.00000
714,    0.00000,    6.00000,    0.00000
715,    3.70835,    6.50000,    0.00000
716,    6.30642,    7.50000,    0.00000
717,   11.50258,   12.00000,    0.00000
718,    8.03848,    8.50000,    0.00000
719,   12.80162,   14.25000,    0.00000
720,    5.87341,    7.25000,    0.00000
721,    1.11027,    6.00000,    0.00000
722,   13.66764,   16.75000,    0.00000
723,    8.47149,    8.75000,    0.00000
724,    5.44040,    7.00000,    0.00000
725,   14.10065,   19.50000,    0.00000
726,   11.06956,   11.25000,    0.00000
727,   10.20354,   10.25000,    0.00000
728,    3.27534,    6.25000,    0.00000
729,   14.10065,   19.00000,    0.00000
730,    1.97630,    6.00000,    0.00000
731,   13.23463,   15.00000,    0.00000
732,    8.90450,    9.00000,    0.00000
733,    5.00739,    6.75000,    0.00000
734,   13.66764,   16.25000,    0.00000
735,   14.10065,   18.50000,    0.00000
736,   12.36860,   13.00000,    0.00000
737,   11.93559,   12.25000,    0.00000
738,    9.33751,    9.25000,    0.00000
739,   14.10065,   18.00000,    0.00000
740,   12.80162,   13.75000,    0.00000
741,    4.57437,    6.50000,    0.00000
742,   10.63655,   10.50000,    0.00000
743,    0.67726,    5.75000,    0.00000
744,    2.84232,    6.00000,    0.00000
745,   11.50258,   11.50000,    0.00000
746,   13.66764,   15.75000,    0.00000
747,   14.10065,   17.50000,    0.00000
748,   13.23463,   14.50000,    0.00000
749,    1.54329,    5.75000,    0.00000
750,    9.77053,    9.50000,    0.00000
751,    4.14136,    6.25000,    0.00000
752,    7.17245,    7.50000,    0.00000
753,   14.10065,   17.00000,    0.00000
754,    7.60546,    7.75000,    0.00000
755,    6.73944,    7.25000,    0.00000
756,   11.06956,   10.75000,    0.00000
757,    8.03848,    8.00000,    0.00000
758,    6.30642,    7.00000,    0.00000
759,    2.40931,    5.75000,    0.00000
760,   10.20354,    9.75000,    0.00000
761,   12.36860,   12.50000,    0.00000
762,   13.66764,   15.25000,    0.00000
763,   12.80162,   13.25000,    0.00000
764,    3.70835,    6.00000,    0.00000
765,    8.47149,    8.25000,    0.00000
766,    5.87341,    6.75000,    0.00000
767,   14.50000,   20.00000,    0.00000
768,    0.00000,    5.50000,    0.00000
769,   11.93559,   11.75000,    0.00000
770,   14.10065,   16.50000,    0.00000
771,   13.23463,   14.00000,    0.00000
772,    1.11027,    5.50000,    0.00000
773,    8.90450,    8.50000,    0.00000
774,   14.53367,   19.25000,    0.00000
775,    5.44040,    6.50000,    0.00000
776,   14.53367,   18.75000,    0.00000
777,   10.63655,   10.00000,    0.00000
778,   11.50258,   11.00000,    0.00000
779,    9.33751,    8.75000,    0.00000
780,    3.27534,    5.75000,    0.00000
781,    5.00739,    6.25000,    0.00000
782,    1.97630,    5.50000,    0.00000
783,   14.53367,   18.25000,    0.00000
784,   13.66764,   14.75000,    0.00000
785,   14.10065,   16.00000,    0.00000
786,   14.53367,   17.75000,    0.00000
787,   12.80162,   12.75000,    0.00000
788,    9.77053,    9.00000,    0.00000
789,    4.57437,    6.00000,    0.00000
790,   12.36860,   12.00000,    0.00000
791,   13.23463,   13.50000,    0.00000
792,   11.06956,   10.25000,    0.00000
793,    0.67726,    5.25000,    0.00000
794,    2.84232,    5.50000,    0.00000
795,   14.53367,   17.25000,    0.00000
796,   11.93559,   11.25000,    0.00000
797,   14.10065,   15.50000,    0.00000
798,   10.20354,    9.25000,    0.00000
799,   13.66764,   14.25000,    0.00000
800,    1.54329,    5.25000,    0.00000
801,    4.14136,    5.75000,    0.00000
802,    7.60546,    7.25000,    0.00000
803,    7.17245,    7.00000,    0.00000
804,    8.03848,    7.50000,    0.00000
805,    6.73944,    6.75000,    0.00000
806,   14.53367,   16.75000,    0.00000
807,    8.47149,    7.75000,    0.00000
808,    6.30642,    6.50000,    0.00000
809,   11.50258,   10.50000,    0.00000
810,    8.90450,    8.00000,    0.00000
811,    2.40931,    5.25000,    0.00000
812,   10.63655,    9.50000,    0.00000
813,    5.87341,    6.25000,    0.00000
814,   14.10065,   15.00000,    0.00000
815,   12.80162,   12.25000,    0.00000
816,    3.70835,    5.50000,    0.00000
817,   13.23463,   13.00000,    0.00000
818,   14.96668,   19.50000,    0.00000
819,   15.00000,   20.00000,    0.00000
820,    0.00000,    5.00000,    0.00000
821,   14.96668,   19.00000,    0.00000
822,   12.36860,   11.50000,    0.00000
823,    9.33751,    8.25000,    0.00000
824,   14.53367,   16.25000,    0.00000
825,    5.44040,    6.00000,    0.00000
826,   13.66764,   13.75000,    0.00000
827,    1.11027,    5.00000,    0.00000
828,   14.96668,   18.50000,    0.00000
829,   11.06956,    9.75000,    0.00000
830,    9.77053,    8.50000,    0.00000
831,   14.96668,   18.00000,    0.00000
832,   11.93559,   10.75000,    0.00000
833,    5.00739,    5.75000,    0.00000
834,    3.27534,    5.25000,    0.00000
835,    1.97630,    5.00000,    0.00000
836,   14.10065,   14.50000,    0.00000
837,   14.53367,   15.75000,    0.00000
838,   14.96668,   17.50000,    0.00000
839,   10.20354,    8.75000,    0.00000
840,    4.57437,    5.50000,    0.00000
841,   13.23463,   12.50000,    0.00000
842,   12.80162,   11.75000,    0.00000
843,   11.50258,   10.00000,    0.00000
844,   13.66764,   13.25000,    0.00000
845,   14.96668,   17.00000,    0.00000
846,    0.67726,    4.75000,    0.00000
847,    2.84232,    5.00000,    0.00000
848,    7.60546,    6.75000,    0.00000
849,    8.03848,    7.00000,    0.00000
850,    7.17245,    6.50000,    0.00000
851,   14.53367,   15.25000,    0.00000
852,   12.36860,   11.00000,    0.00000
853,   10.63655,    9.00000,    0.00000
854,    8.47149,    7.25000,    0.00000
855,    6.73944,    6.25000,    0.00000
856,    4.14136,    5.25000,    0.00000
857,   14.10065,   14.00000,    0.00000
858,    1.54329,    4.75000,    0.00000
859,    8.90450,    7.50000,    0.00000
860,    6.30642,    6.00000,    0.00000
861,   14.96668,   16.50000,    0.00000
862,    9.33751,    7.75000,    0.00000
863,   11.93559,   10.25000,    0.00000
864,    5.87341,    5.75000,    0.00000
865,   11.06956,    9.25000,    0.00000
866,   15.41641,   19.29167,    0.00000
867,    2.40931,    4.75000,    0.00000
868,   15.39969,   18.75000,    0.00000
869,    3.70835,    5.00000,    0.00000
870,   14.53367,   14.75000,    0.00000
871,   13.23463,   12.00000,    0.00000
872,   13.66764,   12.75000,    0.00000
873,    9.77053,    8.00000,    0.00000
874,    5.44040,    5.50000,    0.00000
875,   14.96668,   16.00000,    0.00000
876,   15.39969,   18.25000,    0.00000
877,   15.50000,   20.00000,    0.00000
878,    0.00000,    4.50000,    0.00000
879,   12.80162,   11.25000,    0.00000
880,   14.10065,   13.50000,    0.00000
881,    1.11027,    4.50000,    0.00000
882,   10.20354,    8.25000,    0.00000
883,   15.39969,   17.75000,    0.00000
884,   11.50258,    9.50000,    0.00000
885,    5.00739,    5.25000,    0.00000
886,   12.36860,   10.50000,    0.00000
887,    3.27534,    4.75000,    0.00000
888,    1.97630,    4.50000,    0.00000
889,   14.96668,   15.50000,    0.00000
890,   14.53367,   14.25000,    0.00000
891,   15.39969,   17.25000,    0.00000
892,   10.63655,    8.50000,    0.00000
893,    4.57437,    5.00000,    0.00000
894,   13.66764,   12.25000,    0.00000
895,    8.03848,    6.50000,    0.00000
896,    7.60546,    6.25000,    0.00000
897,    8.47149,    6.75000,    0.00000
898,   13.23463,   11.50000,    0.00000
899,    7.17245,    6.00000,    0.00000
900,   11.93559,    9.75000,    0.00000
901,   15.39969,   16.75000,    0.00000
902,   14.10065,   13.00000,    0.00000
903,    8.90450,    7.00000,    0.00000
904,    2.84232,    4.50000,    0.00000
905,    6.73944,    5.75000,    0.00000
906,    0.67726,    4.25000,    0.00000
907,   14.96668,   15.00000,    0.00000
908,   11.06956,    8.75000,    0.00000
909,   12.80162,   10.75000,    0.00000
910,    4.14136,    4.75000,    0.00000
911,    9.33751,    7.25000,    0.00000
912,    6.30642,    5.50000,    0.00000
913,   14.53367,   13.75000,    0.00000
914,    1.54329,    4.25000,    0.00000
915,   15.83270,   19.50000,    0.00000
916,   15.39969,   16.25000,    0.00000
917,   15.83270,   19.00000,    0.00000
918,    9.77053,    7.50000,    0.00000
919,    5.87341,    5.25000,    0.00000
920,   15.83270,   18.50000,    0.00000
921,   12.36860,   10.00000,    0.00000
922,   11.50258,    9.00000,    0.00000
923,    2.40931,    4.25000,    0.00000
924,    3.70835,    4.50000,    0.00000
925,   10.20354,    7.75000,    0.00000
926,   14.96668,   14.50000,    0.00000
927,    5.44040,    5.00000,    0.00000
928,   15.83270,   18.00000,    0.00000
929,   13.66764,   11.75000,    0.00000
930,   14.10065,   12.50000,    0.00000
931,   15.39969,   15.75000,    0.00000
932,   16.00000,   20.00000,    0.00000
933,    0.00000,    4.00000,    0.00000
934,   13.23463,   11.00000,    0.00000
935,   14.53367,   13.25000,    0.00000
936,   15.83270,   17.50000,    0.00000
937,   10.63655,    8.00000,    0.00000
938,    1.11027,    4.00000,    0.00000
939,    5.00739,    4.75000,    0.00000
940,   11.93559,    9.25000,    0.00000
941,    3.27534,    4.25000,    0.00000
942,   12.80162,   10.25000,    0.00000
943,   15.83270,   17.00000,    0.00000
944,   15.39969,   15.25000,    0.00000
945,    1.97630,    4.00000,    0.00000
946,   14.96668,   14.00000,    0.00000
947,   11.06956,    8.25000,    0.00000
948,    8.03848,    6.00000,    0.00000
949,    8.47149,    6.25000,    0.00000
950,    7.60546,    5.75000,    0.00000
951,    4.57437,    4.50000,    0.00000
952,    8.90450,    6.50000,    0.00000
953,    7.17245,    5.50000,    0.00000
954,    9.33751,    6.75000,    0.00000
955,   14.10065,   12.00000,    0.00000
956,   15.83270,   16.50000,    0.00000
957,    6.73944,    5.25000,    0.00000
958,   12.36860,    9.50000,    0.00000
959,   13.66764,   11.25000,    0.00000
960,   14.53367,   12.75000,    0.00000
961,    2.84232,    4.00000,    0.00000
962,    9.77053,    7.00000,    0.00000
963,    0.67726,    3.75000,    0.00000
964,   11.50258,    8.50000,    0.00000
965,   15.39969,   14.75000,    0.00000
966,    6.30642,    5.00000,    0.00000
967,   16.26123,   19.39286,    0.00000
968,    4.14136,    4.25000,    0.00000
969,   13.23463,   10.50000,    0.00000
970,   16.26572,   18.75000,    0.00000
971,   14.96668,   13.50000,    0.00000
972,    1.54329,    3.75000,    0.00000
973,   15.83270,   16.00000,    0.00000
974,   10.20354,    7.25000,    0.00000
975,    5.87341,    4.75000,    0.00000
976,   16.26572,   18.25000,    0.00000
977,   12.80162,    9.75000,    0.00000
978,   11.93559,    8.75000,    0.00000
979,   10.63655,    7.50000,    0.00000
980,   16.26572,   17.75000,    0.00000
981,    3.70835,    4.00000,    0.00000
982,    5.44040,    4.50000,    0.00000
983,    2.40931,    3.75000,    0.00000
984,   15.39969,   14.25000,    0.00000
985,   15.83270,   15.50000,    0.00000
986,   14.10065,   11.50000,    0.00000
987,   14.53367,   12.25000,    0.00000
988,   16.26572,   17.25000,    0.00000
989,   16.50000,   20.00000,    0.00000
990,    0.00000,    3.50000,    0.00000
991,   13.66764,   10.75000,    0.00000
992,   11.06956,    7.75000,    0.00000
993,   14.96668,   13.00000,    0.00000
994,    5.00739,    4.25000,    0.00000
995,    1.11027,    3.50000,    0.00000
996,   12.36860,    9.00000,    0.00000
997,    3.27534,    3.75000,    0.00000
998,    8.47149,    5.75000,    0.00000
999,    8.03848,    5.50000,    0.00000
1000,   16.26572,   16.75000,    0.00000
1001,   13.23463,   10.00000,    0.00000
1002,    8.90450,    6.00000,    0.00000
1003,    7.60546,    5.25000,    0.00000
1004,   15.83270,   15.00000,    0.00000
1005,    1.97630,    3.50000,    0.00000
1006,   15.39969,   13.75000,    0.00000
1007,    9.33751,    6.25000,    0.00000
1008,   11.50258,    8.00000,    0.00000
1009,    7.17245,    5.00000,    0.00000
1010,    4.57437,    4.00000,    0.00000
1011,    9.77053,    6.50000,    0.00000
1012,    6.73944,    4.75000,    0.00000
1013,   16.26572,   16.25000,    0.00000
1014,   14.53367,   11.75000,    0.00000
1015,   12.80162,    9.25000,    0.00000
1016,   16.71395,   19.53690,    0.00000
1017,   10.20354,    6.75000,    0.00000
1018,   14.10065,   11.00000,    0.00000
1019,   16.69873,   19.00000,    0.00000
1020,    6.30642,    4.50000,    0.00000
1021,   14.96668,   12.50000,    0.00000
1022,    2.84232,    3.50000,    0.00000
1023,   11.93559,    8.25000,    0.00000
1024,   15.83270,   14.50000,    0.00000
1025,    0.67726,    3.25000,    0.00000
1026,   16.69873,   18.50000,    0.00000
1027,    4.14136,    3.75000,    0.00000
1028,   13.66764,   10.25000,    0.00000
1029,   10.63655,    7.00000,    0.00000
1030,    5.87341,    4.25000,    0.00000
1031,   16.26572,   15.75000,    0.00000
1032,   15.39969,   13.25000,    0.00000
1033,   16.69873,   18.00000,    0.00000
1034,    1.54329,    3.25000,    0.00000
1035,   16.69873,   17.50000,    0.00000
1036,   11.06956,    7.25000,    0.00000
1037,   12.36860,    8.50000,    0.00000
1038,   13.23463,    9.50000,    0.00000
1039,    5.44040,    4.00000,    0.00000
1040,    3.70835,    3.50000,    0.00000
1041,    2.40931,    3.25000,    0.00000
1042,   15.83270,   14.00000,    0.00000
1043,   16.26572,   15.25000,    0.00000
1044,   14.53367,   11.25000,    0.00000
1045,   16.69873,   17.00000,    0.00000
1046,   14.96668,   12.00000,    0.00000
1047,   11.50258,    7.50000,    0.00000
1048,   17.00000,   20.00000,    0.00000
1049,    0.00000,    3.00000,    0.00000
1050,   14.10065,   10.50000,    0.00000
1051,    5.00739,    3.75000,    0.00000
1052,    8.47149,    5.25000,    0.00000
1053,    8.90450,    5.50000,    0.00000
1054,    8.03848,    5.00000,    0.00000
1055,   15.39969,   12.75000,    0.00000
1056,    1.11027,    3.00000,    0.00000
1057,    9.33751,    5.75000,    0.00000
1058,    7.60546,    4.75000,    0.00000
1059,   12.80162,    8.75000,    0.00000
1060,   16.69873,   16.50000,    0.00000
1061,    3.27534,    3.25000,    0.00000
1062,    9.77053,    6.00000,    0.00000
1063,    7.17245,    4.50000,    0.00000
1064,   13.66764,    9.75000,    0.00000
1065,   16.26572,   14.75000,    0.00000
1066,   11.93559,    7.75000,    0.00000
1067,    1.97630,    3.00000,    0.00000
1068,   15.83270,   13.50000,    0.00000
1069,   10.20354,    6.25000,    0.00000
1070,    4.57437,    3.50000,    0.00000
1071,   17.10979,   19.29167,    0.00000
1072,    6.73944,    4.25000,    0.00000
1073,   16.69873,   16.00000,    0.00000
1074,   17.13174,   18.75000,    0.00000
1075,   10.63655,    6.50000,    0.00000
1076,    6.30642,    4.00000,    0.00000
1077,   13.23463,    9.00000,    0.00000
1078,   14.96668,   11.50000,    0.00000
1079,   17.13174,   18.25000,    0.00000
1080,   14.53367,   10.75000,    0.00000
1081,   12.36860,    8.00000,    0.00000
1082,    2.84232,    3.00000,    0.00000
1083,   15.39969,   12.25000,    0.00000
1084,   16.26572,   14.25000,    0.00000
1085,    4.14136,    3.25000,    0.00000
1086,    0.67726,    2.75000,    0.00000
1087,   11.06956,    6.75000,    0.00000
1088,   17.13174,   17.75000,    0.00000
1089,    5.87341,    3.75000,    0.00000
1090,   14.10065,   10.00000,    0.00000
1091,   16.69873,   15.50000,    0.00000
1092,   15.83270,   13.00000,    0.00000
1093,    1.54329,    2.75000,    0.00000
1094,   17.13174,   17.25000,    0.00000
1095,   11.50258,    7.00000,    0.00000
1096,    5.44040,    3.50000,    0.00000
1097,   12.80162,    8.25000,    0.00000
1098,   13.66764,    9.25000,    0.00000
1099,    3.70835,    3.00000,    0.00000
1100,    2.40931,    2.75000,    0.00000
1101,   16.26572,   13.75000,    0.00000
1102,   16.69873,   15.00000,    0.00000
1103,   17.13174,   16.75000,    0.00000
1104,    8.90450,    5.00000,    0.00000
1105,    8.47149,    4.75000,    0.00000
1106,    9.33751,    5.25000,    0.00000
1107,    8.03848,    4.50000,    0.00000
1108,   14.96668,   11.00000,    0.00000
1109,   11.93559,    7.25000,    0.00000
1110,   15.39969,   11.75000,    0.00000
1111,    5.00739,    3.25000,    0.00000
1112,    9.77053,    5.50000,    0.00000
1113,    7.60546,    4.25000,    0.00000
1114,   17.50000,   20.00000,    0.00000
1115,    0.00000,    2.50000,    0.00000
1116,   14.53367,   10.25000,    0.00000
1117,   15.83270,   12.50000,    0.00000
1118,   10.20354,    5.75000,    0.00000
1119,   13.23463,    8.50000,    0.00000
1120,    7.17245,    4.00000,    0.00000
1121,    1.11027,    2.50000,    0.00000
1122,   17.13174,   16.25000,    0.00000
1123,    3.27534,    2.75000,    0.00000
1124,   17.56476,   19.50000,    0.00000
1125,   14.10065,    9.50000,    0.00000
1126,   16.69873,   14.50000,    0.00000
1127,   10.63655,    6.00000,    0.00000
1128,   12.36860,    7.50000,    0.00000
1129,    6.73944,    3.75000,    0.00000
1130,   17.56476,   19.00000,    0.00000
1131,    4.57437,    3.00000,    0.00000
1132,   16.26572,   13.25000,    0.00000
1133,    1.97630,    2.50000,    0.00000
1134,   17.56476,   18.50000,    0.00000
1135,   17.13174,   15.75000,    0.00000
1136,   11.06956,    6.25000,    0.00000
1137,    6.30642,    3.50000,    0.00000
1138,   17.56476,   18.00000,    0.00000
1139,   13.66764,    8.75000,    0.00000
1140,   15.39969,   11.25000,    0.00000
1141,   12.80162,    7.75000,    0.00000
1142,   14.96668,   10.50000,    0.00000
1143,    2.84232,    2.50000,    0.00000
1144,   11.50258,    6.50000,    0.00000
1145,   15.83270,   12.00000,    0.00000
1146,    4.14136,    2.75000,    0.00000
1147,   17.56476,   17.50000,    0.00000
1148,   16.69873,   14.00000,    0.00000
1149,    5.87341,    3.25000,    0.00000
1150,    0.67726,    2.25000,    0.00000
1151,   17.13174,   15.25000,    0.00000
1152,   14.53367,    9.75000,    0.00000
1153,   16.26572,   12.75000,    0.00000
1154,    1.54329,    2.25000,    0.00000
1155,   17.56476,   17.00000,    0.00000
1156,   11.93559,    6.75000,    0.00000
1157,    5.44040,    3.00000,    0.00000
1158,   13.23463,    8.00000,    0.00000
1159,    8.90450,    4.50000,    0.00000
1160,    9.33751,    4.75000,    0.00000
1161,   14.10065,    9.00000,    0.00000
1162,    8.47149,    4.25000,    0.00000
1163,    3.70835,    2.50000,    0.00000
1164,    9.77053,    5.00000,    0.00000
1165,    8.03848,    4.00000,    0.00000
1166,   17.56476,   16.50000,    0.00000
1167,    2.40931,    2.25000,    0.00000
1168,   17.13174,   14.75000,    0.00000
1169,   16.69873,   13.50000,    0.00000
1170,   10.20354,    5.25000,    0.00000
1171,    7.60546,    3.75000,    0.00000
1172,   12.36860,    7.00000,    0.00000
1173,    5.00739,    2.75000,    0.00000
1174,   15.39969,   10.75000,    0.00000
1175,   15.83270,   11.50000,    0.00000
1176,   10.63655,    5.50000,    0.00000
1177,    7.17245,    3.50000,    0.00000
1178,   18.00000,   20.00000,    0.00000
1179,    0.00000,    2.00000,    0.00000
1180,   14.96668,   10.00000,    0.00000
1181,   17.99777,   19.25000,    0.00000
1182,   17.56476,   16.00000,    0.00000
1183,   16.26572,   12.25000,    0.00000
1184,   13.66764,    8.25000,    0.00000
1185,    1.11027,    2.00000,    0.00000
1186,   17.99777,   18.75000,    0.00000
1187,   11.06956,    5.75000,    0.00000
1188,    3.27534,    2.25000,    0.00000
1189,    6.73944,    3.25000,    0.00000
1190,   12.80162,    7.25000,    0.00000
1191,   17.13174,   14.25000,    0.00000
1192,   14.53367,    9.25000,    0.00000
1193,   17.99777,   18.25000,    0.00000
1194,    4.57437,    2.50000,    0.00000
1195,   16.69873,   13.00000,    0.00000
1196,    1.97630,    2.00000,    0.00000
1197,   11.50258,    6.00000,    0.00000
1198,   17.56476,   15.50000,    0.00000
1199,    6.30642,    3.00000,    0.00000
1200,   17.99777,   17.75000,    0.00000
1201,   14.10065,    8.50000,    0.00000
1202,   13.23463,    7.50000,    0.00000
1203,   17.99777,   17.25000,    0.00000
1204,   11.93559,    6.25000,    0.00000
1205,   15.83270,   11.00000,    0.00000
1206,    5.87341,    2.75000,    0.00000
1207,    2.84232,    2.00000,    0.00000
1208,   15.39969,   10.25000,    0.00000
1209,    4.14136,    2.25000,    0.00000
1210,   17.13174,   13.75000,    0.00000
1211,   16.26572,   11.75000,    0.00000
1212,   17.56476,   15.00000,    0.00000
1213,    0.67726,    1.75000,    0.00000
1214,   14.96668,    9.50000,    0.00000
1215,   17.99777,   16.75000,    0.00000
1216,   16.69873,   12.50000,    0.00000
1217,   12.36860,    6.50000,    0.00000
1218,    9.33751,    4.25000,    0.00000
1219,    8.90450,    4.00000,    0.00000
1220,    1.54329,    1.75000,    0.00000
1221,    9.77053,    4.50000,    0.00000
1222,    8.47149,    3.75000,    0.00000
1223,    5.44040,    2.50000,    0.00000
1224,   10.20354,    4.75000,    0.00000
1225,   13.66764,    7.75000,    0.00000
1226,    8.03848,    3.50000,    0.00000
1227,    3.70835,    2.00000,    0.00000
1228,   14.53367,    8.75000,    0.00000
1229,   17.99777,   16.25000,    0.00000
1230,   10.63655,    5.00000,    0.00000
1231,    7.60546,    3.25000,    0.00000
1232,   17.56476,   14.50000,    0.00000
1233,    2.40931,    1.75000,    0.00000
1234,   17.13174,   13.25000,    0.00000
1235,   12.80162,    6.75000,    0.00000
1236,   18.43078,   19.50000,    0.00000
1237,   11.06956,    5.25000,    0.00000
1238,    5.00739,    2.25000,    0.00000
1239,    7.17245,    3.00000,    0.00000
1240,   18.43078,   19.00000,    0.00000
1241,   15.83270,   10.50000,    0.00000
1242,   16.26572,   11.25000,    0.00000
1243,   18.43078,   18.50000,    0.00000
1244,   17.99777,   15.75000,    0.00000
1245,   15.39969,    9.75000,    0.00000
1246,   18.50000,   20.00000,    0.00000
1247,    0.00000,    1.50000,    0.00000
1248,   11.50258,    5.50000,    0.00000
1249,   14.10065,    8.00000,    0.00000
1250,   16.69873,   12.00000,    0.00000
1251,    6.73944,    2.75000,    0.00000
1252,    1.11027,    1.50000,    0.00000
1253,   18.43078,   18.00000,    0.00000
1254,    3.27534,    1.75000,    0.00000
1255,   13.23463,    7.00000,    0.00000
1256,   17.56476,   14.00000,    0.00000
1257,    4.57437,    2.00000,    0.00000
1258,   14.96668,    9.00000,    0.00000
1259,   11.93559,    5.75000,    0.00000
1260,   18.43078,   17.50000,    0.00000
1261,    6.30642,    2.50000,    0.00000
1262,   17.13174,   12.75000,    0.00000
1263,    1.97630,    1.50000,    0.00000
1264,   17.99777,   15.25000,    0.00000
1265,   18.43078,   17.00000,    0.00000
1266,   12.36860,    6.00000,    0.00000
1267,   14.53367,    8.25000,    0.00000
1268,   13.66764,    7.25000,    0.00000
1269,    5.87341,    2.25000,    0.00000
1270,   16.26572,   10.75000,    0.00000
1271,    4.14136,    1.75000,    0.00000
1272,    2.84232,    1.50000,    0.00000
1273,   15.83270,   10.00000,    0.00000
1274,   17.56476,   13.50000,    0.00000
1275,   16.69873,   11.50000,    0.00000
1276,    9.33751,    3.75000,    0.00000
1277,    9.77053,    4.00000,    0.00000
1278,   17.99777,   14.75000,    0.00000
1279,    8.90450,    3.50000,    0.00000
1280,   18.43078,   16.50000,    0.00000
1281,    0.67726,    1.25000,    0.00000
1282,   10.20354,    4.25000,    0.00000
1283,    8.47149,    3.25000,    0.00000
1284,   15.39969,    9.25000,    0.00000
1285,   12.80162,    6.25000,    0.00000
1286,   10.63655,    4.50000,    0.00000
1287,   17.13174,   12.25000,    0.00000
1288,    5.44040,    2.00000,    0.00000
1289,    8.03848,    3.00000,    0.00000
1290,    1.54329,    1.25000,    0.00000
1291,   14.10065,    7.50000,    0.00000
1292,   11.06956,    4.75000,    0.00000
1293,    7.60546,    2.75000,    0.00000
1294,   18.43078,   16.00000,    0.00000
1295,    3.70835,    1.50000,    0.00000
1296,   14.96668,    8.50000,    0.00000
1297,   17.99777,   14.25000,    0.00000
1298,   18.88649,   19.29167,    0.00000
1299,   11.50258,    5.00000,    0.00000
1300,    2.40931,    1.25000,    0.00000
1301,   18.86379,   18.75000,    0.00000
1302,   13.23463,    6.50000,    0.00000
1303,   17.56476,   13.00000,    0.00000
1304,    7.17245,    2.50000,    0.00000
1305,    5.00739,    1.75000,    0.00000
1306,   18.86379,   18.25000,    0.00000
1307,   16.26572,   10.25000,    0.00000
1308,   16.69873,   11.00000,    0.00000
1309,   18.43078,   15.50000,    0.00000
1310,   11.93559,    5.25000,    0.00000
1311,    6.73944,    2.25000,    0.00000
1312,   18.86379,   17.75000,    0.00000
1313,   15.83270,    9.50000,    0.00000
1314,   19.00000,   20.00000,    0.00000
1315,    0.00000,    1.00000,    0.00000
1316,   14.53367,    7.75000,    0.00000
1317,   17.13174,   11.75000,    0.00000
1318,    1.11027,    1.00000,    0.00000
1319,    3.27534,    1.25000,    0.00000
1320,   13.66764,    6.75000,    0.00000
1321,   17.99777,   13.75000,    0.00000
1322,    4.57437,    1.50000,    0.00000
1323,   12.36860,    5.50000,    0.00000
1324,   18.86379,   17.25000,    0.00000
1325,   15.39969,    8.75000,    0.00000
1326,    6.30642,    2.00000,    0.00000
1327,   18.43078,   15.00000,    0.00000
1328,   17.56476,   12.50000,    0.00000
1329,    1.97630,    1.00000,    0.00000
1330,   18.86379,   16.75000,    0.00000
1331,   12.80162,    5.75000,    0.00000
1332,    5.87341,    1.75000,    0.00000
1333,    9.77053,    3.50000,    0.00000
1334,    9.33751,    3.25000,    0.00000
1335,   14.10065,    7.00000,    0.00000
1336,   14.96668,    8.00000,    0.00000
1337,   10.20354,    3.75000,    0.00000
1338,    8.90450,    3.00000,    0.00000
1339,    4.14136,    1.25000,    0.00000
1340,    2.84232,    1.00000,    0.00000
1341,   16.69873,   10.50000,    0.00000
1342,   10.63655,    4.00000,    0.00000
1343,    8.47149,    2.75000,    0.00000
1344,   17.99777,   13.25000,    0.00000
1345,   16.26572,    9.75000,    0.00000
1346,   18.86379,   16.25000,    0.00000
1347,   18.43078,   14.50000,    0.00000
1348,   17.13174,   11.25000,    0.00000
1349,   11.06956,    4.25000,    0.00000
1350,    8.03848,    2.50000,    0.00000
1351,   13.23463,    6.00000,    0.00000
1352,   15.83270,    9.00000,    0.00000
1353,    5.44040,    1.50000,    0.00000
1354,   19.28378,   19.53690,    0.00000
1355,    0.56630,    0.70833,    0.00000
1356,   17.56476,   12.00000,    0.00000
1357,   11.50258,    4.50000,    0.00000
1358,    7.60546,    2.25000,    0.00000
1359,    1.54329,    0.75000,    0.00000
1360,   19.29681,   19.00000,    0.00000
1361,   14.53367,    7.25000,    0.00000
1362,   18.86379,   15.75000,    0.00000
1363,   19.29681,   18.50000,    0.00000
1364,    3.70835,    1.00000,    0.00000
1365,   11.93559,    4.75000,    0.00000
1366,   15.39969,    8.25000,    0.00000
1367,    7.17245,    2.00000,    0.00000
1368,   18.43078,   14.00000,    0.00000
1369,   13.66764,    6.25000,    0.00000
1370,   19.29681,   18.00000,    0.00000
1371,   17.99777,   12.75000,    0.00000
1372,    5.00739,    1.25000,    0.00000
1373,   12.36860,    5.00000,    0.00000
1374,    2.42443,    0.70833,    0.00000
1375,   18.86379,   15.25000,    0.00000
1376,    6.73944,    1.75000,    0.00000
1377,   19.29681,   17.50000,    0.00000
1378,   16.69873,   10.00000,    0.00000
1379,   17.13174,   10.75000,    0.00000
1380,   16.26572,    9.25000,    0.00000
1381,   19.50000,   20.00000,    0.00000
1382,    0.00000,    0.50000,    0.00000
1383,   14.96668,    7.50000,    0.00000
1384,   17.56476,   11.50000,    0.00000
1385,   14.10065,    6.50000,    0.00000
1386,   19.29681,   17.00000,    0.00000
1387,   12.80162,    5.25000,    0.00000
1388,    1.11027,    0.50000,    0.00000
1389,    4.57437,    1.00000,    0.00000
1390,   18.43078,   13.50000,    0.00000
1391,    6.30642,    1.50000,    0.00000
1392,   15.83270,    8.50000,    0.00000
1393,   18.86379,   14.75000,    0.00000
1394,   17.99777,   12.25000,    0.00000
1395,    1.97630,    0.50000,    0.00000
1396,    9.77053,    3.00000,    0.00000
1397,   19.29681,   16.50000,    0.00000
1398,   10.20354,    3.25000,    0.00000
1399,    9.33751,    2.75000,    0.00000
1400,   10.63655,    3.50000,    0.00000
1401,   13.23463,    5.50000,    0.00000
1402,    8.90450,    2.50000,    0.00000
1403,    5.87341,    1.25000,    0.00000
1404,   11.06956,    3.75000,    0.00000
1405,    3.26810,    0.60714,    0.00000
1406,   14.53367,    6.75000,    0.00000
1407,    8.47149,    2.25000,    0.00000
1408,   15.39969,    7.75000,    0.00000
1409,   11.50258,    4.00000,    0.00000
1410,    2.84232,    0.50000,    0.00000
1411,   19.29681,   16.00000,    0.00000
1412,   17.13174,   10.25000,    0.00000
1413,    8.03848,    2.00000,    0.00000
1414,   18.43078,   13.00000,    0.00000
1415,   18.86379,   14.25000,    0.00000
1416,   16.69873,    9.50000,    0.00000
1417,    4.11780,    0.70833,    0.00000
1418,   17.56476,   11.00000,    0.00000
1419,   19.73558,   19.39286,    0.00000
1420,   13.66764,    5.75000,    0.00000
1421,   11.93559,    4.25000,    0.00000
1422,    5.44040,    1.00000,    0.00000
1423,   19.72982,   18.75000,    0.00000
1424,    7.60546,    1.75000,    0.00000
1425,   16.26572,    8.75000,    0.00000
1426,   17.99777,   11.75000,    0.00000
1427,   19.72982,   18.25000,    0.00000
1428,   19.29681,   15.50000,    0.00000
1429,   14.96668,    7.00000,    0.00000
1430,   12.36860,    4.50000,    0.00000
1431,    7.17245,    1.50000,    0.00000
1432,   19.72982,   17.75000,    0.00000
1433,   15.83270,    8.00000,    0.00000
1434,   14.10065,    6.00000,    0.00000
1435,   18.86379,   13.75000,    0.00000
1436,    3.71885,    0.46310,    0.00000
1437,    5.00739,    0.75000,    0.00000
1438,   18.43078,   12.50000,    0.00000
1439,   12.80162,    4.75000,    0.00000
1440,   19.72982,   17.25000,    0.00000
1441,    6.73944,    1.25000,    0.00000
1442,   19.29681,   15.00000,    0.00000
1443,   17.13174,    9.75000,    0.00000
1444,   17.56476,   10.50000,    0.00000
1445,   15.39969,    7.25000,    0.00000
1446,   19.72982,   16.75000,    0.00000
1447,   16.69873,    9.00000,    0.00000
1448,   20.00000,   20.00000,    0.00000
1449,    0.00000,    0.00000,    0.00000
1450,   13.23463,    5.00000,    0.00000
1451,    0.50000,    0.00000,    0.00000
1452,   14.53367,    6.25000,    0.00000
1453,   17.99777,   11.25000,    0.00000
1454,    6.30642,    1.00000,    0.00000
1455,    1.00000,    0.00000,    0.00000
1456,    4.57437,    0.50000,    0.00000
1457,   18.86379,   13.25000,    0.00000
1458,   10.20354,    2.75000,    0.00000
1459,    9.77053,    2.50000,    0.00000
1460,   10.63655,    3.00000,    0.00000
1461,    1.50000,    0.00000,    0.00000
1462,    9.33751,    2.25000,    0.00000
1463,   19.29681,   14.50000,    0.00000
1464,   16.26572,    8.25000,    0.00000
1465,   11.06956,    3.25000,    0.00000
1466,    8.90450,    2.00000,    0.00000
1467,   19.72982,   16.25000,    0.00000
1468,   18.43078,   12.00000,    0.00000
1469,    2.00000,    0.00000,    0.00000
1470,   13.66764,    5.25000,    0.00000
1471,   11.50258,    3.50000,    0.00000
1472,    8.47149,    1.75000,    0.00000
1473,    2.50000,    0.00000,    0.00000
1474,   14.96668,    6.50000,    0.00000
1475,   11.93559,    3.75000,    0.00000
1476,   20.16283,   19.50000,    0.00000
1477,    8.03848,    1.50000,    0.00000
1478,    5.89451,    0.70833,    0.00000
1479,   15.83270,    7.50000,    0.00000
1480,   19.72982,   15.75000,    0.00000
1481,   20.16283,   19.00000,    0.00000
1482,   19.29681,   14.00000,    0.00000
1483,   18.86379,   12.75000,    0.00000
1484,   17.56476,   10.00000,    0.00000
1485,   20.16283,   18.50000,    0.00000
1486,   12.36860,    4.00000,    0.00000
1487,    3.00000,    0.00000,    0.00000
1488,   17.13174,    9.25000,    0.00000
1489,   14.10065,    5.50000,    0.00000
1490,    7.60546,    1.25000,    0.00000
1491,   17.99777,   10.75000,    0.00000
1492,    5.44040,    0.50000,    0.00000
1493,   20.16283,   18.00000,    0.00000
1494,   16.69873,    8.50000,    0.00000
1495,   19.72982,   15.25000,    0.00000
1496,   18.43078,   11.50000,    0.00000
1497,   12.80162,    4.25000,    0.00000
1498,    3.50000,    0.00000,    0.00000
1499,    7.17245,    1.00000,    0.00000
1500,   15.39969,    6.75000,    0.00000
1501,   20.16283,   17.50000,    0.00000
1502,   14.53367,    5.75000,    0.00000
1503,   19.29681,   13.50000,    0.00000
1504,   16.26572,    7.75000,    0.00000
1505,   13.23463,    4.50000,    0.00000
1506,   20.16283,   17.00000,    0.00000
1507,   18.86379,   12.25000,    0.00000
1508,    4.00000,    0.00000,    0.00000
1509,   19.72982,   14.75000,    0.00000
1510,   17.56476,    9.50000,    0.00000
1511,   20.16283,   16.50000,    0.00000
1512,   17.99777,   10.25000,    0.00000
1513,   10.20354,    2.25000,    0.00000
1514,   13.66764,    4.75000,    0.00000
1515,   10.63655,    2.50000,    0.00000
1516,    9.77053,    2.00000,    0.00000
1517,   15.83270,    7.00000,    0.00000
1518,   14.96668,    6.00000,    0.00000
1519,   17.13174,    8.75000,    0.00000
1520,   11.06956,    2.75000,    0.00000
1521,   20.50000,   20.00000,    0.00000
1522,    4.50000,    0.00000,    0.00000
1523,    9.33751,    1.75000,    0.00000
1524,   18.43078,   11.00000,    0.00000
1525,   11.50258,    3.00000,    0.00000
1526,    6.28999,    0.46141,    0.00000
1527,   19.29681,   13.00000,    0.00000
1528,    8.90450,    1.50000,    0.00000
1529,    6.74902,    0.59871,    0.00000
1530,   19.72982,   14.25000,    0.00000
1531,   20.16283,   16.00000,    0.00000
1532,   16.69873,    8.00000,    0.00000
1533,   11.93559,    3.25000,    0.00000
1534,    8.47149,    1.25000,    0.00000
1535,   14.10065,    5.00000,    0.00000
1536,   18.86379,   11.75000,    0.00000
1537,   20.57987,   19.29167,    0.00000
1538,    5.00000,    0.00000,    0.00000
1539,   12.36860,    3.50000,    0.00000
1540,   20.59584,   18.75000,    0.00000
1541,   15.39969,    6.25000,    0.00000
1542,   20.16283,   15.50000,    0.00000
1543,   16.26572,    7.25000,    0.00000
1544,   20.59584,   18.25000,    0.00000
1545,    8.08565,    0.96343,    0.00000
1546,   12.80162,    3.75000,    0.00000
1547,   19.72982,   13.75000,    0.00000
1548,   19.29681,   12.50000,    0.00000
1549,   14.53367,    5.25000,    0.00000
1550,   17.99777,    9.75000,    0.00000
1551,   20.59584,   17.75000,    0.00000
1552,   17.56476,    9.00000,    0.00000
1553,   18.43078,   10.50000,    0.00000
1554,    5.50000,    0.00000,    0.00000
1555,   13.23463,    4.00000,    0.00000
1556,   20.16283,   15.00000,    0.00000
1557,   17.13174,    8.25000,    0.00000
1558,   20.59584,   17.25000,    0.00000
1559,   18.86379,   11.25000,    0.00000
1560,   15.83270,    6.50000,    0.00000
1561,   14.96668,    5.50000,    0.00000
1562,    7.21838,    0.44094,    0.00000
1563,   20.59584,   16.75000,    0.00000
1564,   19.72982,   13.25000,    0.00000
1565,   13.66764,    4.25000,    0.00000
1566,   16.69873,    7.50000,    0.00000
1567,    7.67698,    0.59757,    0.00000
1568,    6.00000,    0.00000,    0.00000
1569,   19.29681,   12.00000,    0.00000
1570,   20.16283,   14.50000,    0.00000
1571,   10.63655,    2.00000,    0.00000
1572,   10.20354,    1.75000,    0.00000
1573,   11.06956,    2.25000,    0.00000
1574,    9.77053,    1.50000,    0.00000
1575,   20.59584,   16.25000,    0.00000
1576,   11.50258,    2.50000,    0.00000
1577,    9.33751,    1.25000,    0.00000
1578,   14.10065,    4.50000,    0.00000
1579,   17.99777,    9.25000,    0.00000
1580,   18.43078,   10.00000,    0.00000
1581,   11.93559,    2.75000,    0.00000
1582,   16.26572,    6.75000,    0.00000
1583,    8.49233,    0.81589,    0.00000
1584,   15.39969,    5.75000,    0.00000
1585,    8.90450,    1.00000,    0.00000
1586,   17.56476,    8.50000,    0.00000
1587,   21.00000,   20.00000,    0.00000
1588,   18.86379,   10.75000,    0.00000
1589,   19.72982,   12.75000,    0.00000
1590,   12.36860,    3.00000,    0.00000
1591,    6.50000,    0.00000,    0.00000
1592,   20.59584,   15.75000,    0.00000
1593,   21.02886,   19.50000,    0.00000
1594,   20.16283,   14.00000,    0.00000
1595,   21.02886,   19.00000,    0.00000
1596,   17.13174,    7.75000,    0.00000
1597,   14.53367,    4.75000,    0.00000
1598,   12.80162,    3.25000,    0.00000
1599,   21.02886,   18.50000,    0.00000
1600,   19.29681,   11.50000,    0.00000
1601,   21.02886,   18.00000,    0.00000
1602,   15.83270,    6.00000,    0.00000
1603,   20.59584,   15.25000,    0.00000
1604,   13.23463,    3.50000,    0.00000
1605,   16.69873,    7.00000,    0.00000
1606,   21.02886,   17.50000,    0.00000
1607,   20.16283,   13.50000,    0.00000
1608,    7.00000,    0.00000,    0.00000
1609,   14.96668,    5.00000,    0.00000
1610,   19.72982,   12.25000,    0.00000
1611,   18.43078,    9.50000,    0.00000
1612,   17.99777,    8.75000,    0.00000
1613,   13.66764,    3.75000,    0.00000
1614,   18.86379,   10.25000,    0.00000
1615,    8.25000,    0.43301,    0.00000
1616,   21.02886,   17.00000,    0.00000
1617,   20.59584,   14.75000,    0.00000
1618,   17.56476,    8.00000,    0.00000
1619,   19.29681,   11.00000,    0.00000
1620,   16.26572,    6.25000,    0.00000
1621,   21.02886,   16.50000,    0.00000
1622,   15.39969,    5.25000,    0.00000
1623,   14.10065,    4.00000,    0.00000
1624,   10.63655,    1.50000,    0.00000
1625,   20.16283,   13.00000,    0.00000
1626,   11.06956,    1.75000,    0.00000
1627,   10.20354,    1.25000,    0.00000
1628,   17.13174,    7.25000,    0.00000
1629,    7.50000,    0.00000,    0.00000
1630,   11.50258,    2.00000,    0.00000
1631,    9.77053,    1.00000,    0.00000
1632,   20.59584,   14.25000,    0.00000
1633,   19.72982,   11.75000,    0.00000
1634,   11.93559,    2.25000,    0.00000
1635,   21.02886,   16.00000,    0.00000
1636,   12.36860,    2.50000,    0.00000
1637,   14.53367,    4.25000,    0.00000
1638,    8.75000,    0.43301,    0.00000
1639,   18.43078,    9.00000,    0.00000
1640,   18.86379,    9.75000,    0.00000
1641,   15.83270,    5.50000,    0.00000
1642,   16.69873,    6.50000,    0.00000
1643,   21.46187,   19.25000,    0.00000
1644,   12.80162,    2.75000,    0.00000
1645,   17.99777,    8.25000,    0.00000
1646,   21.46187,   18.75000,    0.00000
1647,   21.50000,   20.00000,    0.00000
1648,   21.02886,   15.50000,    0.00000
1649,   19.29681,   10.50000,    0.00000
1650,    9.29044,    0.59757,    0.00000
1651,   20.16283,   12.50000,    0.00000
1652,   20.59584,   13.75000,    0.00000
1653,   21.46187,   18.25000,    0.00000
1654,    8.00000,    0.00000,    0.00000
1655,   13.23463,    3.00000,    0.00000
1656,   14.96668,    4.50000,    0.00000
1657,   17.56476,    7.50000,    0.00000
1658,   21.46187,   17.75000,    0.00000
1659,   19.72982,   11.25000,    0.00000
1660,   21.02886,   15.00000,    0.00000
1661,   13.66764,    3.25000,    0.00000
1662,   16.26572,    5.75000,    0.00000
1663,   21.46187,   17.25000,    0.00000
1664,   17.13174,    6.75000,    0.00000
1665,   15.39969,    4.75000,    0.00000
1666,   20.59584,   13.25000,    0.00000
1667,   20.16283,   12.00000,    0.00000
1668,   14.10065,    3.50000,    0.00000
1669,   21.46187,   16.75000,    0.00000
1670,   18.86379,    9.25000,    0.00000
1671,   18.43078,    8.50000,    0.00000
1672,    8.50000,    0.00000,    0.00000
1673,   19.29681,   10.00000,    0.00000
1674,   21.02886,   14.50000,    0.00000
1675,   17.99777,    7.75000,    0.00000
1676,   11.06956,    1.25000,    0.00000
1677,   10.63655,    1.00000,    0.00000
1678,   11.50258,    1.50000,    0.00000
1679,   21.46187,   16.25000,    0.00000
1680,   19.72982,   10.75000,    0.00000
1681,   16.69873,    6.00000,    0.00000
1682,   14.53367,    3.75000,    0.00000
1683,   11.93559,    1.75000,    0.00000
1684,   15.83270,    5.00000,    0.00000
1685,   20.59584,   12.75000,    0.00000
1686,   12.36860,    2.00000,    0.00000
1687,   17.56476,    7.00000,    0.00000
1688,    9.75556,    0.44094,    0.00000
1689,   21.02886,   14.00000,    0.00000
1690,   21.46187,   15.75000,    0.00000
1691,   20.16283,   11.50000,    0.00000
1692,   12.80162,    2.25000,    0.00000
1693,   21.89488,   19.50000,    0.00000
1694,   14.96668,    4.00000,    0.00000
1695,   21.89488,   19.00000,    0.00000
1696,   10.21681,    0.60714,    0.00000
1697,    9.00000,    0.00000,    0.00000
1698,   13.23463,    2.50000,    0.00000
1699,   21.89488,   18.50000,    0.00000
1700,   16.26572,    5.25000,    0.00000
1701,   18.86379,    8.75000,    0.00000
1702,   17.13174,    6.25000,    0.00000
1703,   19.29681,    9.50000,    0.00000
1704,   21.46187,   15.25000,    0.00000
1705,   21.89488,   18.00000,    0.00000
1706,   18.43078,    8.00000,    0.00000
1707,   22.00000,   20.00000,    0.00000
1708,   20.59584,   12.25000,    0.00000
1709,   19.72982,   10.25000,    0.00000
1710,   13.66764,    2.75000,    0.00000
1711,   21.02886,   13.50000,    0.00000
1712,   15.39969,    4.25000,    0.00000
1713,   21.89488,   17.50000,    0.00000
1714,   17.99777,    7.25000,    0.00000
1715,   20.16283,   11.00000,    0.00000
1716,   14.10065,    3.00000,    0.00000
1717,   21.46187,   14.75000,    0.00000
1718,   21.89488,   17.00000,    0.00000
1719,   16.69873,    5.50000,    0.00000
1720,    9.50000,    0.00000,    0.00000
1721,   17.56476,    6.50000,    0.00000
1722,   15.83270,    4.50000,    0.00000
1723,   21.02886,   13.00000,    0.00000
1724,   21.89488,   16.50000,    0.00000
1725,   14.53367,    3.25000,    0.00000
1726,   20.59584,   11.75000,    0.00000
1727,   11.50258,    1.00000,    0.00000
1728,   19.29681,    9.00000,    0.00000
1729,   10.63655,    0.50000,    0.00000
1730,   21.46187,   14.25000,    0.00000
1731,   18.86379,    8.25000,    0.00000
1732,   11.93559,    1.25000,    0.00000
1733,   19.72982,    9.75000,    0.00000
1734,   11.05797,    0.70833,    0.00000
1735,   12.36860,    1.50000,    0.00000
1736,   21.89488,   16.00000,    0.00000
1737,   18.43078,    7.50000,    0.00000
1738,   14.96668,    3.50000,    0.00000
1739,   17.13174,    5.75000,    0.00000
1740,   20.16283,   10.50000,    0.00000
1741,   12.80162,    1.75000,    0.00000
1742,   16.26572,    4.75000,    0.00000
1743,   21.02886,   12.50000,    0.00000
1744,   13.23463,    2.00000,    0.00000
1745,   17.99777,    6.75000,    0.00000
1746,   21.89488,   15.50000,    0.00000
1747,   21.46187,   13.75000,    0.00000
1748,   10.00000,    0.00000,    0.00000
1749,   22.32789,   18.75000,    0.00000
1750,   22.35658,   19.29167,    0.00000
1751,   20.59584,   11.25000,    0.00000
1752,   15.39969,    3.75000,    0.00000
1753,   22.32789,   18.25000,    0.00000
1754,   13.66764,    2.25000,    0.00000
1755,   22.32789,   17.75000,    0.00000
1756,   16.69873,    5.00000,    0.00000
1757,   21.89488,   15.00000,    0.00000
1758,   17.56476,    6.00000,    0.00000
1759,   19.29681,    8.50000,    0.00000
1760,   19.72982,    9.25000,    0.00000
1761,   14.10065,    2.50000,    0.00000
1762,   18.86379,    7.75000,    0.00000
1763,   22.32789,   17.25000,    0.00000
1764,   21.46187,   13.25000,    0.00000
1765,   21.02886,   12.00000,    0.00000
1766,   22.50000,   20.00000,    0.00000
1767,   20.16283,   10.00000,    0.00000
1768,   15.83270,    4.00000,    0.00000
1769,   18.43078,    7.00000,    0.00000
1770,   14.53367,    2.75000,    0.00000
1771,   22.32789,   16.75000,    0.00000
1772,   21.89488,   14.50000,    0.00000
1773,   20.59584,   10.75000,    0.00000
1774,   10.50000,    0.00000,    0.00000
1775,   17.13174,    5.25000,    0.00000
1776,   11.50258,    0.50000,    0.00000
1777,   22.32789,   16.25000,    0.00000
1778,   16.26572,    4.25000,    0.00000
1779,   17.99777,    6.25000,    0.00000
1780,   14.96668,    3.00000,    0.00000
1781,   21.46187,   12.75000,    0.00000
1782,   12.36860,    1.00000,    0.00000
1783,   21.02886,   11.50000,    0.00000
1784,   11.94633,    0.70833,    0.00000
1785,   21.89488,   14.00000,    0.00000
1786,   12.80162,    1.25000,    0.00000
1787,   19.72982,    8.75000,    0.00000
1788,   19.29681,    8.00000,    0.00000
1789,   22.32789,   15.75000,    0.00000
1790,   20.16283,    9.50000,    0.00000
1791,   13.23463,    1.50000,    0.00000
1792,   15.39969,    3.25000,    0.00000
1793,   22.76091,   19.50000,    0.00000
1794,   18.86379,    7.25000,    0.00000
1795,   17.56476,    5.50000,    0.00000
1796,   22.76091,   19.00000,    0.00000
1797,   16.69873,    4.50000,    0.00000
1798,   20.59584,   10.25000,    0.00000
1799,   13.66764,    1.75000,    0.00000
1800,   22.76091,   18.50000,    0.00000
1801,   21.46187,   12.25000,    0.00000
1802,   11.00000,    0.00000,    0.00000
1803,   22.32789,   15.25000,    0.00000
1804,   21.89488,   13.50000,    0.00000
1805,   18.43078,    6.50000,    0.00000
1806,   22.76091,   18.00000,    0.00000
1807,   14.10065,    2.00000,    0.00000
1808,   15.83270,    3.50000,    0.00000
1809,   21.02886,   11.00000,    0.00000
1810,   22.76091,   17.50000,    0.00000
1811,   17.13174,    4.75000,    0.00000
1812,   22.32789,   14.75000,    0.00000
1813,   14.53367,    2.25000,    0.00000
1814,   17.99777,    5.75000,    0.00000
1815,   22.76091,   17.00000,    0.00000
1816,   19.72982,    8.25000,    0.00000
1817,   20.16283,    9.00000,    0.00000
1818,   21.89488,   13.00000,    0.00000
1819,   19.29681,    7.50000,    0.00000
1820,   16.26572,    3.75000,    0.00000
1821,   21.46187,   11.75000,    0.00000
1822,   23.00000,   20.00000,    0.00000
1823,   20.59584,    9.75000,    0.00000
1824,   14.96668,    2.50000,    0.00000
1825,   22.76091,   16.50000,    0.00000
1826,   18.86379,    6.75000,    0.00000
1827,   22.32789,   14.25000,    0.00000
1828,   11.50000,    0.00000,    0.00000
1829,   21.02886,   10.50000,    0.00000
1830,   12.36860,    0.50000,    0.00000
1831,   17.56476,    5.00000,    0.00000
1832,   22.76091,   16.00000,    0.00000
1833,   15.39969,    2.75000,    0.00000
1834,   16.69873,    4.00000,    0.00000
1835,   21.89488,   12.50000,    0.00000
1836,   18.43078,    6.00000,    0.00000
1837,   13.23463,    1.00000,    0.00000
1838,   12.83468,    0.70833,    0.00000
1839,   23.16160,   19.29167,    0.00000
1840,   21.46187,   11.25000,    0.00000
1841,   22.32789,   13.75000,    0.00000
1842,   22.76091,   15.50000,    0.00000
1843,   13.66764,    1.25000,    0.00000
1844,   20.16283,    8.50000,    0.00000
1845,   19.72982,    7.75000,    0.00000
1846,   23.19392,   18.75000,    0.00000
1847,   15.83270,    3.00000,    0.00000
1848,   20.59584,    9.25000,    0.00000
1849,   23.19392,   18.25000,    0.00000
1850,   14.10065,    1.50000,    0.00000
1851,   19.29681,    7.00000,    0.00000
1852,   17.99777,    5.25000,    0.00000
1853,   17.13174,    4.25000,    0.00000
1854,   21.02886,   10.00000,    0.00000
1855,   23.19392,   17.75000,    0.00000
1856,   22.76091,   15.00000,    0.00000
1857,   21.89488,   12.00000,    0.00000
1858,   12.00000,    0.00000,    0.00000
1859,   22.32789,   13.25000,    0.00000
1860,   14.53367,    1.75000,    0.00000
1861,   18.86379,    6.25000,    0.00000
1862,   16.26572,    3.25000,    0.00000
1863,   23.19392,   17.25000,    0.00000
1864,   21.46187,   10.75000,    0.00000
1865,   14.96668,    2.00000,    0.00000
1866,   22.76091,   14.50000,    0.00000
1867,   23.19392,   16.75000,    0.00000
1868,   17.56476,    4.50000,    0.00000
1869,   18.43078,    5.50000,    0.00000
1870,   20.16283,    8.00000,    0.00000
1871,   20.59584,    8.75000,    0.00000
1872,   22.32789,   12.75000,    0.00000
1873,   16.69873,    3.50000,    0.00000
1874,   21.89488,   11.50000,    0.00000
1875,   19.72982,    7.25000,    0.00000
1876,   23.19392,   16.25000,    0.00000
1877,   15.39969,    2.25000,    0.00000
1878,   23.50000,   20.00000,    0.00000
1879,   21.02886,    9.50000,    0.00000
1880,   22.76091,   14.00000,    0.00000
1881,   19.29681,    6.50000,    0.00000
1882,   21.46187,   10.25000,    0.00000
1883,   23.19392,   15.75000,    0.00000
1884,   13.24180,    0.48333,    0.00000
1885,   12.50000,    0.00000,    0.00000
1886,   17.99777,    4.75000,    0.00000
1887,   15.83270,    2.50000,    0.00000
1888,   17.13174,    3.75000,    0.00000
1889,   13.63970,    0.70833,    0.00000
1890,   23.62693,   19.50000,    0.00000
1891,   22.32789,   12.25000,    0.00000
1892,   18.86379,    5.75000,    0.00000
1893,   23.62693,   19.00000,    0.00000
1894,   14.10065,    1.00000,    0.00000
1895,   22.76091,   13.50000,    0.00000
1896,   21.89488,   11.00000,    0.00000
1897,   23.62693,   18.50000,    0.00000
1898,   23.19392,   15.25000,    0.00000
1899,   16.26572,    2.75000,    0.00000
1900,   23.62693,   18.00000,    0.00000
1901,   20.59584,    8.25000,    0.00000
1902,   20.16283,    7.50000,    0.00000
1903,   14.53367,    1.25000,    0.00000
1904,   21.02886,    9.00000,    0.00000
1905,   23.62693,   17.50000,    0.00000
1906,   17.56476,    4.00000,    0.00000
1907,   18.43078,    5.00000,    0.00000
1908,   19.72982,    6.75000,    0.00000
1909,   23.19392,   14.75000,    0.00000
1910,   21.46187,    9.75000,    0.00000
1911,   14.96668,    1.50000,    0.00000
1912,   22.32789,   11.75000,    0.00000
1913,   22.76091,   13.00000,    0.00000
1914,   23.62693,   17.00000,    0.00000
1915,   16.69873,    3.00000,    0.00000
1916,   19.29681,    6.00000,    0.00000
1917,   13.00000,    0.00000,    0.00000
1918,   21.89488,   10.50000,    0.00000
1919,   15.39969,    1.75000,    0.00000
1920,   23.62693,   16.50000,    0.00000
1921,   23.19392,   14.25000,    0.00000
1922,   17.99777,    4.25000,    0.00000
1923,   18.86379,    5.25000,    0.00000
1924,   17.13174,    3.25000,    0.00000
1925,   23.62693,   16.00000,    0.00000
1926,   20.59584,    7.75000,    0.00000
1927,   22.76091,   12.50000,    0.00000
1928,   21.02886,    8.50000,    0.00000
1929,   15.83270,    2.00000,    0.00000
1930,   22.32789,   11.25000,    0.00000
1931,   20.16283,    7.00000,    0.00000
1932,   24.00000,   20.00000,    0.00000
1933,   21.46187,    9.25000,    0.00000
1934,   23.19392,   13.75000,    0.00000
1935,   19.72982,    6.25000,    0.00000
1936,   23.62693,   15.50000,    0.00000
1937,   14.10065,    0.50000,    0.00000
1938,   21.89488,   10.00000,    0.00000
1939,   24.05995,   19.25000,    0.00000
1940,   16.26572,    2.25000,    0.00000
1941,   18.43078,    4.50000,    0.00000
1942,   24.05995,   18.75000,    0.00000
1943,   17.56476,    3.50000,    0.00000
1944,   14.53367,    0.75000,    0.00000
1945,   24.05995,   18.25000,    0.00000
1946,   22.76091,   12.00000,    0.00000
1947,   13.50000,    0.00000,    0.00000
1948,   19.29681,    5.50000,    0.00000
1949,   23.62693,   15.00000,    0.00000
1950,   23.19392,   13.25000,    0.00000
1951,   24.05995,   17.75000,    0.00000
1952,   22.32789,   10.75000,    0.00000
1953,   14.96668,    1.00000,    0.00000
1954,   16.69873,    2.50000,    0.00000
1955,   21.02886,    8.00000,    0.00000
1956,   24.05995,   17.25000,    0.00000
1957,   20.59584,    7.25000,    0.00000
1958,   21.46187,    8.75000,    0.00000
1959,   17.99777,    3.75000,    0.00000
1960,   18.86379,    4.75000,    0.00000
1961,   23.62693,   14.50000,    0.00000
1962,   15.39969,    1.25000,    0.00000
1963,   20.16283,    6.50000,    0.00000
1964,   24.05995,   16.75000,    0.00000
1965,   21.89488,    9.50000,    0.00000
1966,   22.76091,   11.50000,    0.00000
1967,   23.19392,   12.75000,    0.00000
1968,   17.13174,    2.75000,    0.00000
1969,   19.72982,    5.75000,    0.00000
1970,   15.83270,    1.50000,    0.00000
1971,   24.05995,   16.25000,    0.00000
1972,   22.32789,   10.25000,    0.00000
1973,   23.62693,   14.00000,    0.00000
1974,   18.43078,    4.00000,    0.00000
1975,   14.00000,    0.00000,    0.00000
1976,   24.05995,   15.75000,    0.00000
1977,   19.29681,    5.00000,    0.00000
1978,   17.56476,    3.00000,    0.00000
1979,   16.26572,    1.75000,    0.00000
1980,   23.19392,   12.25000,    0.00000
1981,   21.02886,    7.50000,    0.00000
1982,   21.46187,    8.25000,    0.00000
1983,   22.76091,   11.00000,    0.00000
1984,   20.59584,    6.75000,    0.00000
1985,   24.49296,   19.50000,    0.00000
1986,   24.50000,   20.00000,    0.00000
1987,   21.89488,    9.00000,    0.00000
1988,   23.62693,   13.50000,    0.00000
1989,   24.49296,   19.00000,    0.00000
1990,   24.05995,   15.25000,    0.00000
1991,   24.49296,   18.50000,    0.00000
1992,   20.16283,    6.00000,    0.00000
1993,   16.69873,    2.00000,    0.00000
1994,   22.32789,    9.75000,    0.00000
1995,   24.49296,   18.00000,    0.00000
1996,   18.86379,    4.25000,    0.00000
1997,   14.96668,    0.50000,    0.00000
1998,   17.99777,    3.25000,    0.00000
1999,   23.19392,   11.75000,    0.00000
2000,   24.49296,   17.50000,    0.00000
2001,   24.05995,   14.75000,    0.00000
2002,   19.72982,    5.25000,    0.00000
2003,   23.62693,   13.00000,    0.00000
2004,   22.76091,   10.50000,    0.00000
2005,   17.13174,    2.25000,    0.00000
2006,   24.49296,   17.00000,    0.00000
2007,   15.41641,    0.70833,    0.00000
2008,   14.50000,    0.00000,    0.00000
2009,   21.46187,    7.75000,    0.00000
2010,   21.02886,    7.00000,    0.00000
2011,   21.89488,    8.50000,    0.00000
2012,   15.83270,    1.00000,    0.00000
2013,   24.05995,   14.25000,    0.00000
2014,   18.43078,    3.50000,    0.00000
2015,   24.49296,   16.50000,    0.00000
2016,   19.29681,    4.50000,    0.00000
2017,   20.59584,    6.25000,    0.00000
2018,   22.32789,    9.25000,    0.00000
2019,   23.62693,   12.50000,    0.00000
2020,   23.19392,   11.25000,    0.00000
2021,   17.56476,    2.50000,    0.00000
2022,   24.49296,   16.00000,    0.00000
2023,   16.26572,    1.25000,    0.00000
2024,   20.16283,    5.50000,    0.00000
2025,   24.05995,   13.75000,    0.00000
2026,   22.76091,   10.00000,    0.00000
2027,   18.86379,    3.75000,    0.00000
2028,   24.49296,   15.50000,    0.00000
2029,   16.69873,    1.50000,    0.00000
2030,   17.99777,    2.75000,    0.00000
2031,   19.72982,    4.75000,    0.00000
2032,   23.62693,   12.00000,    0.00000
2033,   24.93831,   19.29167,    0.00000
2034,   24.92597,   18.75000,    0.00000
2035,   21.46187,    7.25000,    0.00000
2036,   21.89488,    8.00000,    0.00000
2037,   23.19392,   10.75000,    0.00000
2038,   24.92597,   18.25000,    0.00000
2039,   24.05995,   13.25000,    0.00000
2040,   21.02886,    6.50000,    0.00000
2041,   24.49296,   15.00000,    0.00000
2042,   25.00000,   20.00000,    0.00000
2043,   15.00000,    0.00000,    0.00000
2044,   22.32789,    8.75000,    0.00000
2045,   24.92597,   17.75000,    0.00000
2046,   17.13174,    1.75000,    0.00000
2047,   20.59584,    5.75000,    0.00000
2048,   22.76091,    9.50000,    0.00000
2049,   19.29681,    4.00000,    0.00000
2050,   18.43078,    3.00000,    0.00000
2051,   24.92597,   17.25000,    0.00000
2052,   24.49296,   14.50000,    0.00000
2053,   23.62693,   11.50000,    0.00000
2054,   15.83270,    0.50000,    0.00000
2055,   24.05995,   12.75000,    0.00000
2056,   20.16283,    5.00000,    0.00000
2057,   24.92597,   16.75000,    0.00000
2058,   17.56476,    2.00000,    0.00000
2059,   23.19392,   10.25000,    0.00000
2060,   24.92597,   16.25000,    0.00000
2061,   21.89488,    7.50000,    0.00000
2062,   24.49296,   14.00000,    0.00000
2063,   21.46187,    6.75000,    0.00000
2064,   18.86379,    3.25000,    0.00000
2065,   22.32789,    8.25000,    0.00000
2066,   19.72982,    4.25000,    0.00000
2067,   21.02886,    6.00000,    0.00000
2068,   24.05995,   12.25000,    0.00000
2069,   17.99777,    2.25000,    0.00000
2070,   22.76091,    9.00000,    0.00000
2071,   23.62693,   11.00000,    0.00000
2072,   24.92597,   15.75000,    0.00000
2073,   16.69873,    1.00000,    0.00000
2074,   15.50000,    0.00000,    0.00000
2075,   16.26123,    0.60714,    0.00000
2076,   20.59584,    5.25000,    0.00000
2077,   24.49296,   13.50000,    0.00000
2078,   23.19392,    9.75000,    0.00000
2079,   25.35898,   19.50000,    0.00000
2080,   24.92597,   15.25000,    0.00000
2081,   25.35898,   19.00000,    0.00000
2082,   19.29681,    3.50000,    0.00000
2083,   17.13174,    1.25000,    0.00000
2084,   25.35898,   18.50000,    0.00000
2085,   18.43078,    2.50000,    0.00000
2086,   20.16283,    4.50000,    0.00000
2087,   24.05995,   11.75000,    0.00000
2088,   25.35898,   18.00000,    0.00000
2089,   21.89488,    7.00000,    0.00000
2090,   23.62693,   10.50000,    0.00000
2091,   22.32789,    7.75000,    0.00000
2092,   24.92597,   14.75000,    0.00000
2093,   24.49296,   13.00000,    0.00000
2094,   25.35898,   17.50000,    0.00000
2095,   21.46187,    6.25000,    0.00000
2096,   25.50000,   20.00000,    0.00000
2097,   22.76091,    8.50000,    0.00000
2098,   17.56476,    1.50000,    0.00000
2099,   25.35898,   17.00000,    0.00000
2100,   21.02886,    5.50000,    0.00000
2101,   19.72982,    3.75000,    0.00000
2102,   18.86379,    2.75000,    0.00000
2103,   23.19392,    9.25000,    0.00000
2104,   24.92597,   14.25000,    0.00000
2105,   25.35898,   16.50000,    0.00000
2106,   24.05995,   11.25000,    0.00000
2107,   16.00000,    0.00000,    0.00000
2108,   24.49296,   12.50000,    0.00000
2109,   20.59584,    4.75000,    0.00000
2110,   17.99777,    1.75000,    0.00000
2111,   23.62693,   10.00000,    0.00000
2112,   25.35898,   16.00000,    0.00000
2113,   24.92597,   13.75000,    0.00000
2114,   16.71395,    0.46310,    0.00000
2115,   22.32789,    7.25000,    0.00000
2116,   19.29681,    3.00000,    0.00000
2117,   21.89488,    6.50000,    0.00000
2118,   22.76091,    8.00000,    0.00000
2119,   20.16283,    4.00000,    0.00000
2120,   25.35898,   15.50000,    0.00000
2121,   21.46187,    5.75000,    0.00000
2122,   18.43078,    2.00000,    0.00000
2123,   24.49296,   12.00000,    0.00000
2124,   24.05995,   10.75000,    0.00000
2125,   23.19392,    8.75000,    0.00000
2126,   17.10979,    0.70833,    0.00000
2127,   25.78000,   19.39286,    0.00000
2128,   25.79200,   18.75000,    0.00000
2129,   24.92597,   13.25000,    0.00000
2130,   21.02886,    5.00000,    0.00000
2131,   25.35898,   15.00000,    0.00000
2132,   25.79200,   18.25000,    0.00000
2133,   23.62693,    9.50000,    0.00000
2134,   17.56476,    1.00000,    0.00000
2135,   19.72982,    3.25000,    0.00000
2136,   25.79200,   17.75000,    0.00000
2137,   18.86379,    2.25000,    0.00000
2138,   24.49296,   11.50000,    0.00000
2139,   16.50000,    0.00000,    0.00000
2140,   20.59584,    4.25000,    0.00000
2141,   25.79200,   17.25000,    0.00000
2142,   25.35898,   14.50000,    0.00000
2143,   24.92597,   12.75000,    0.00000
2144,   24.05995,   10.25000,    0.00000
2145,   22.32789,    6.75000,    0.00000
2146,   22.76091,    7.50000,    0.00000
2147,   21.89488,    6.00000,    0.00000
2148,   17.99777,    1.25000,    0.00000
2149,   25.79200,   16.75000,    0.00000
2150,   26.00000,   20.00000,    0.00000
2151,   23.19392,    8.25000,    0.00000
2152,   21.46187,    5.25000,    0.00000
2153,   19.29681,    2.50000,    0.00000
2154,   20.16283,    3.50000,    0.00000
2155,   25.35898,   14.00000,    0.00000
2156,   23.62693,    9.00000,    0.00000
2157,   25.79200,   16.25000,    0.00000
2158,   24.49296,   11.00000,    0.00000
2159,   24.92597,   12.25000,    0.00000
2160,   18.43078,    1.50000,    0.00000
2161,   21.02886,    4.50000,    0.00000
2162,   25.79200,   15.75000,    0.00000
2163,   24.05995,    9.75000,    0.00000
2164,   25.35898,   13.50000,    0.00000
2165,   19.72982,    2.75000,    0.00000
2166,   22.76091,    7.00000,    0.00000
2167,   22.32789,    6.25000,    0.00000
2168,   25.79200,   15.25000,    0.00000
2169,   23.19392,    7.75000,    0.00000
2170,   26.22734,   19.53690,    0.00000
2171,   20.59584,    3.75000,    0.00000
2172,   26.22501,   19.00000,    0.00000
2173,   17.56476,    0.50000,    0.00000
2174,   18.86379,    1.75000,    0.00000
2175,   17.00000,    0.00000,    0.00000
2176,   24.92597,   11.75000,    0.00000
2177,   21.89488,    5.50000,    0.00000
2178,   26.22501,   18.50000,    0.00000
2179,   24.49296,   10.50000,    0.00000
2180,   23.62693,    8.50000,    0.00000
2181,   26.22501,   18.00000,    0.00000
2182,   25.35898,   13.00000,    0.00000
2183,   25.79200,   14.75000,    0.00000
2184,   21.46187,    4.75000,    0.00000
2185,   26.22501,   17.50000,    0.00000
2186,   24.05995,    9.25000,    0.00000
2187,   17.99777,    0.75000,    0.00000
2188,   20.16283,    3.00000,    0.00000
2189,   19.29681,    2.00000,    0.00000
2190,   26.22501,   17.00000,    0.00000
2191,   24.92597,   11.25000,    0.00000
2192,   21.02886,    4.00000,    0.00000
2193,   25.79200,   14.25000,    0.00000
2194,   25.35898,   12.50000,    0.00000
2195,   24.49296,   10.00000,    0.00000
2196,   26.22501,   16.50000,    0.00000
2197,   22.76091,    6.50000,    0.00000
2198,   23.19392,    7.25000,    0.00000
2199,   18.43078,    1.00000,    0.00000
2200,   22.32789,    5.75000,    0.00000
2201,   23.62693,    8.00000,    0.00000
2202,   26.50000,   20.00000,    0.00000
2203,   26.22501,   16.00000,    0.00000
2204,   25.79200,   13.75000,    0.00000
2205,   19.72982,    2.25000,    0.00000
2206,   21.89488,    5.00000,    0.00000
2207,   20.59584,    3.25000,    0.00000
2208,   24.05995,    8.75000,    0.00000
2209,   17.50000,    0.00000,    0.00000
2210,   24.92597,   10.75000,    0.00000
2211,   25.35898,   12.00000,    0.00000
2212,   18.86379,    1.25000,    0.00000
2213,   26.22501,   15.50000,    0.00000
2214,   21.46187,    4.25000,    0.00000
2215,   26.63168,   19.29167,    0.00000
2216,   24.49296,    9.50000,    0.00000
2217,   25.79200,   13.25000,    0.00000
2218,   26.65802,   18.75000,    0.00000
2219,   26.22501,   15.00000,    0.00000
2220,   20.16283,    2.50000,    0.00000
2221,   23.19392,    6.75000,    0.00000
2222,   26.65802,   18.25000,    0.00000
2223,   22.76091,    6.00000,    0.00000
2224,   21.02886,    3.50000,    0.00000
2225,   23.62693,    7.50000,    0.00000
2226,   19.29681,    1.50000,    0.00000
2227,   25.35898,   11.50000,    0.00000
2228,   26.65802,   17.75000,    0.00000
2229,   22.32789,    5.25000,    0.00000
2230,   24.92597,   10.25000,    0.00000
2231,   24.05995,    8.25000,    0.00000
2232,   25.79200,   12.75000,    0.00000
2233,   26.22501,   14.50000,    0.00000
2234,   26.65802,   17.25000,    0.00000
2235,   21.89488,    4.50000,    0.00000
2236,   18.43078,    0.50000,    0.00000
2237,   24.49296,    9.00000,    0.00000
2238,   26.65802,   16.75000,    0.00000
2239,   20.59584,    2.75000,    0.00000
2240,   19.72982,    1.75000,    0.00000
2241,   26.22501,   14.00000,    0.00000
2242,   18.00000,    0.00000,    0.00000
2243,   25.35898,   11.00000,    0.00000
2244,   21.46187,    3.75000,    0.00000
2245,   26.65802,   16.25000,    0.00000
2246,   25.79200,   12.25000,    0.00000
2247,   24.92597,    9.75000,    0.00000
2248,   23.19392,    6.25000,    0.00000
2249,   23.62693,    7.00000,    0.00000
2250,   22.76091,    5.50000,    0.00000
2251,   26.65802,   15.75000,    0.00000
2252,   18.88649,    0.70833,    0.00000
2253,   24.05995,    7.75000,    0.00000
2254,   27.00000,   20.00000,    0.00000
2255,   26.22501,   13.50000,    0.00000
2256,   20.16283,    2.00000,    0.00000
2257,   22.32789,    4.75000,    0.00000
2258,   21.02886,    3.00000,    0.00000
2259,   24.49296,    8.50000,    0.00000
2260,   26.65802,   15.25000,    0.00000
2261,   25.79200,   11.75000,    0.00000
2262,   25.35898,   10.50000,    0.00000
2263,   19.29681,    1.00000,    0.00000
2264,   27.09103,   19.50000,    0.00000
2265,   27.09103,   19.00000,    0.00000
2266,   21.89488,    4.00000,    0.00000
2267,   27.09103,   18.50000,    0.00000
2268,   26.22501,   13.00000,    0.00000
2269,   24.92597,    9.25000,    0.00000
2270,   27.09103,   18.00000,    0.00000
2271,   26.65802,   14.75000,    0.00000
2272,   20.59584,    2.25000,    0.00000
2273,   27.09103,   17.50000,    0.00000
2274,   23.62693,    6.50000,    0.00000
2275,   19.72982,    1.25000,    0.00000
2276,   23.19392,    5.75000,    0.00000
2277,   21.46187,    3.25000,    0.00000
2278,   24.05995,    7.25000,    0.00000
2279,   25.79200,   11.25000,    0.00000
2280,   18.50000,    0.00000,    0.00000
2281,   27.09103,   17.00000,    0.00000
2282,   22.76091,    5.00000,    0.00000
2283,   25.35898,   10.00000,    0.00000
2284,   26.65802,   14.25000,    0.00000
2285,   24.49296,    8.00000,    0.00000
2286,   26.22501,   12.50000,    0.00000
2287,   27.09103,   16.50000,    0.00000
2288,   22.32789,    4.25000,    0.00000
2289,   24.92597,    8.75000,    0.00000
2290,   21.02886,    2.50000,    0.00000
2291,   20.16283,    1.50000,    0.00000
2292,   26.65802,   13.75000,    0.00000
2293,   27.09103,   16.00000,    0.00000
2294,   25.79200,   10.75000,    0.00000
2295,   21.89488,    3.50000,    0.00000
2296,   26.22501,   12.00000,    0.00000
2297,   19.28378,    0.46310,    0.00000
2298,   27.09103,   15.50000,    0.00000
2299,   23.62693,    6.00000,    0.00000
2300,   24.05995,    6.75000,    0.00000
2301,   23.19392,    5.25000,    0.00000
2302,   24.49296,    7.50000,    0.00000
2303,   26.65802,   13.25000,    0.00000
2304,   27.50000,   20.00000,    0.00000
2305,   20.59584,    1.75000,    0.00000
2306,   27.52405,   19.25000,    0.00000
2307,   21.46187,    2.75000,    0.00000
2308,   22.76091,    4.50000,    0.00000
2309,   27.09103,   15.00000,    0.00000
2310,   27.52405,   18.75000,    0.00000
2311,   24.92597,    8.25000,    0.00000
2312,   25.46355,    9.44568,    0.00000
2313,   26.22501,   11.50000,    0.00000
2314,   25.79200,   10.25000,    0.00000
2315,   27.52405,   18.25000,    0.00000
2316,   19.00000,    0.00000,    0.00000
2317,   22.32789,    3.75000,    0.00000
2318,   27.52405,   17.75000,    0.00000
2319,   26.65802,   12.75000,    0.00000
2320,   25.35898,    9.00000,    0.00000
2321,   27.09103,   14.50000,    0.00000
2322,   27.52405,   17.25000,    0.00000
2323,   19.73558,    0.60714,    0.00000
2324,   21.02886,    2.00000,    0.00000
2325,   20.16283,    1.00000,    0.00000
2326,   24.05995,    6.25000,    0.00000
2327,   27.52405,   16.75000,    0.00000
2328,   21.89488,    3.00000,    0.00000
2329,   23.62693,    5.50000,    0.00000
2330,   26.22501,   11.00000,    0.00000
2331,   24.49296,    7.00000,    0.00000
2332,   27.09103,   14.00000,    0.00000
2333,   25.79200,    9.75000,    0.00000
2334,   23.19392,    4.75000,    0.00000
2335,   26.65802,   12.25000,    0.00000
2336,   24.92597,    7.75000,    0.00000
2337,   27.52405,   16.25000,    0.00000
2338,   22.76091,    4.00000,    0.00000
2339,   25.35898,    8.50000,    0.00000
2340,   27.52405,   15.75000,    0.00000
2341,   21.46187,    2.25000,    0.00000
2342,   20.59584,    1.25000,    0.00000
2343,   27.09103,   13.50000,    0.00000
2344,   26.22501,   10.50000,    0.00000
2345,   26.65802,   11.75000,    0.00000
2346,   22.32789,    3.25000,    0.00000
2347,   27.52405,   15.25000,    0.00000
2348,   19.50000,    0.00000,    0.00000
2349,   25.26158,    8.01886,    0.00000
2350,   27.95706,   19.50000,    0.00000
2351,   24.05995,    5.75000,    0.00000
2352,   24.49296,    6.50000,    0.00000
2353,   27.95706,   19.00000,    0.00000
2354,   27.09103,   13.00000,    0.00000
2355,   23.62693,    5.00000,    0.00000
2356,   27.95706,   18.50000,    0.00000
2357,   24.92597,    7.25000,    0.00000
2358,   28.00000,   20.00000,    0.00000
2359,   21.02886,    1.50000,    0.00000
2360,   27.52405,   14.75000,    0.00000
2361,   27.95706,   18.00000,    0.00000
2362,   21.89488,    2.50000,    0.00000
2363,   23.19392,    4.25000,    0.00000
2364,   20.16283,    0.50000,    0.00000
2365,   25.80093,    8.97812,    0.00000
2366,   26.65802,   11.25000,    0.00000
2367,   26.22501,   10.00000,    0.00000
2368,   27.95706,   17.50000,    0.00000
2369,   27.09103,   12.50000,    0.00000
2370,   22.76091,    3.50000,    0.00000
2371,   27.95706,   17.00000,    0.00000
2372,   27.52405,   14.25000,    0.00000
2373,   26.08201,    9.39162,    0.00000
2374,   21.46187,    1.75000,    0.00000
2375,   27.95706,   16.50000,    0.00000
2376,   20.57987,    0.70833,    0.00000
2377,   24.49296,    6.00000,    0.00000
2378,   22.32789,    2.75000,    0.00000
2379,   26.65802,   10.75000,    0.00000
2380,   24.05995,    5.25000,    0.00000
2381,   27.52405,   13.75000,    0.00000
2382,   24.92597,    6.75000,    0.00000
2383,   27.95706,   16.00000,    0.00000
2384,   27.09103,   12.00000,    0.00000
2385,   23.62693,    4.50000,    0.00000
2386,   25.35898,    7.50000,    0.00000
2387,   20.00000,    0.00000,    0.00000
2388,   27.95706,   15.50000,    0.00000
2389,   23.19392,    3.75000,    0.00000
2390,   27.52405,   13.25000,    0.00000
2391,   21.02886,    1.00000,    0.00000
2392,   21.89488,    2.00000,    0.00000
2393,   25.73801,    8.09431,    0.00000
2394,   26.65802,   10.25000,    0.00000
2395,   27.09103,   11.50000,    0.00000
2396,   27.95706,   15.00000,    0.00000
2397,   22.76091,    3.00000,    0.00000
2398,   28.40839,   19.29167,    0.00000
2399,   28.39007,   18.75000,    0.00000
2400,   26.01857,    8.52800,    0.00000
2401,   28.39007,   18.25000,    0.00000
2402,   27.52405,   12.75000,    0.00000
2403,   26.21311,    8.90854,    0.00000
2404,   24.49296,    5.50000,    0.00000
2405,   24.92597,    6.25000,    0.00000
2406,   28.39007,   17.75000,    0.00000
2407,   24.05995,    4.75000,    0.00000
2408,   27.95706,   14.50000,    0.00000
2409,   25.35898,    7.00000,    0.00000
2410,   21.46187,    1.25000,    0.00000
2411,   28.50000,   20.00000,    0.00000
2412,   28.39007,   17.25000,    0.00000
2413,   22.32789,    2.25000,    0.00000
2414,   23.62693,    4.00000,    0.00000
2415,   27.09103,   11.00000,    0.00000
2416,   26.59409,    9.60460,    0.00000
2417,   28.39007,   16.75000,    0.00000
2418,   27.95706,   14.00000,    0.00000
2419,   27.52405,   12.25000,    0.00000
2420,   23.19392,    3.25000,    0.00000
2421,   28.39007,   16.25000,    0.00000
2422,   20.50000,    0.00000,    0.00000
2423,   25.27605,    6.49477,    0.00000
2424,   21.89488,    1.50000,    0.00000
2425,   21.02886,    0.50000,    0.00000
2426,   27.95706,   13.50000,    0.00000
2427,   28.39007,   15.75000,    0.00000
2428,   27.09103,   10.50000,    0.00000
2429,   22.76091,    2.50000,    0.00000
2430,   24.92597,    5.75000,    0.00000
2431,   24.49296,    5.00000,    0.00000
2432,   27.52405,   11.75000,    0.00000
2433,   24.05995,    4.25000,    0.00000
2434,   25.97581,    7.65503,    0.00000
2435,   25.79200,    7.25000,    0.00000
2436,   28.39007,   15.25000,    0.00000
2437,   26.68073,    9.11244,    0.00000
2438,   23.62693,    3.50000,    0.00000
2439,   26.23729,    8.07892,    0.00000
2440,   27.95706,   13.00000,    0.00000
2441,   28.82309,   19.50000,    0.00000
2442,   21.46187,    0.75000,    0.00000
2443,   22.32789,    1.75000,    0.00000
2444,   28.82309,   19.00000,    0.00000
2445,   26.48332,    8.53250,    0.00000
2446,   28.82309,   18.50000,    0.00000
2447,   28.39007,   14.75000,    0.00000
2448,   27.09103,   10.00000,    0.00000
2449,   27.52405,   11.25000,    0.00000
2450,   28.82309,   18.00000,    0.00000
2451,   23.19392,    2.75000,    0.00000
2452,   28.82309,   17.50000,    0.00000
2453,   27.95706,   12.50000,    0.00000
2454,   25.37986,    6.05076,    0.00000
2455,   24.92597,    5.25000,    0.00000
2456,   28.39007,   14.25000,    0.00000
2457,   28.82309,   17.00000,    0.00000
2458,   24.49296,    4.50000,    0.00000
2459,   21.89488,    1.00000,    0.00000
2460,   29.00000,   20.00000,    0.00000
2461,   21.00000,    0.00000,    0.00000
2462,   22.76091,    2.00000,    0.00000
2463,   25.75169,    6.59393,    0.00000
2464,   24.05995,    3.75000,    0.00000
2465,   28.82309,   16.50000,    0.00000
2466,   27.52405,   10.75000,    0.00000
2467,   27.06331,    9.43267,    0.00000
2468,   28.39007,   13.75000,    0.00000
2469,   27.95706,   12.00000,    0.00000
2470,   28.82309,   16.00000,    0.00000
2471,   23.62693,    3.00000,    0.00000
2472,   22.32789,    1.25000,    0.00000
2473,   28.82309,   15.50000,    0.00000
2474,   28.39007,   13.25000,    0.00000
2475,   27.52405,   10.25000,    0.00000
2476,   23.19392,    2.25000,    0.00000
2477,   25.35898,    5.50000,    0.00000
2478,   26.47380,    7.64731,    0.00000
2479,   27.95706,   11.50000,    0.00000
2480,   24.92597,    4.75000,    0.00000
2481,   26.22971,    7.05360,    0.00000
2482,   28.82309,   15.00000,    0.00000
2483,   24.49296,    4.00000,    0.00000
2484,   29.25436,   19.39286,    0.00000
2485,   26.72792,    8.04014,    0.00000
2486,   29.25610,   18.75000,    0.00000
2487,   26.93584,    8.49407,    0.00000
2488,   28.39007,   12.75000,    0.00000
2489,   29.25610,   18.25000,    0.00000
2490,   27.15063,    8.94479,    0.00000
2491,   24.05995,    3.25000,    0.00000
2492,   21.89488,    0.50000,    0.00000
2493,   22.76091,    1.50000,    0.00000
2494,   29.25610,   17.75000,    0.00000
2495,   28.82309,   14.50000,    0.00000
2496,   21.50000,    0.00000,    0.00000
2497,   27.95706,   11.00000,    0.00000
2498,   27.52405,    9.75000,    0.00000
2499,   29.25610,   17.25000,    0.00000
2500,   23.62693,    2.50000,    0.00000
2501,   28.39007,   12.25000,    0.00000
2502,   29.25610,   16.75000,    0.00000
2503,   28.82309,   14.00000,    0.00000
2504,   25.35898,    5.00000,    0.00000
2505,   24.92597,    4.25000,    0.00000
2506,   29.25610,   16.25000,    0.00000
2507,   29.50000,   20.00000,    0.00000
2508,   23.19392,    1.75000,    0.00000
2509,   25.91978,    5.88144,    0.00000
2510,   27.95706,   10.50000,    0.00000
2511,   22.35658,    0.70833,    0.00000
2512,   24.49296,    3.50000,    0.00000
2513,   28.82309,   13.50000,    0.00000
2514,   27.52405,    9.25000,    0.00000
2515,   29.25610,   15.75000,    0.00000
2516,   28.39007,   11.75000,    0.00000
2517,   26.30547,    6.42697,    0.00000
2518,   24.05995,    2.75000,    0.00000
2519,   26.73657,    7.22352,    0.00000
2520,   29.25610,   15.25000,    0.00000
2521,   22.76091,    1.00000,    0.00000
2522,   28.82309,   13.00000,    0.00000
2523,   26.97233,    7.65829,    0.00000
2524,   27.95706,   10.00000,    0.00000
2525,   29.68911,   19.50000,    0.00000
2526,   23.62693,    2.00000,    0.00000
2527,   29.68911,   19.00000,    0.00000
2528,   28.39007,   11.25000,    0.00000
2529,   26.61898,    6.80121,    0.00000
2530,   27.22475,    8.08950,    0.00000
2531,   25.35898,    4.50000,    0.00000
2532,   29.25610,   14.75000,    0.00000
2533,   29.68911,   18.50000,    0.00000
2534,   22.00000,    0.00000,    0.00000
2535,   27.43153,    8.53201,    0.00000
2536,   25.85406,    5.30059,    0.00000
2537,   24.92597,    3.75000,    0.00000
2538,   29.68911,   18.00000,    0.00000
2539,   28.82309,   12.50000,    0.00000
2540,   29.68911,   17.50000,    0.00000
2541,   24.49296,    3.00000,    0.00000
2542,   29.25610,   14.25000,    0.00000
2543,   23.19392,    1.25000,    0.00000
2544,   29.68911,   17.00000,    0.00000
2545,   28.39007,   10.75000,    0.00000
2546,   27.95706,    9.50000,    0.00000
2547,   29.68911,   16.50000,    0.00000
2548,   24.05995,    2.25000,    0.00000
2549,   28.82309,   12.00000,    0.00000
2550,   29.25610,   13.75000,    0.00000
2551,   29.68911,   16.00000,    0.00000
2552,   25.79200,    4.75000,    0.00000
2553,   22.76091,    0.50000,    0.00000
2554,   25.35898,    4.00000,    0.00000
2555,   26.30436,    5.58208,    0.00000
2556,   30.00000,   20.00000,    0.00000
2557,   23.62693,    1.50000,    0.00000
2558,   26.77727,    6.44282,    0.00000
2559,   28.39007,   10.25000,    0.00000
2560,   26.55547,    5.99977,    0.00000
2561,   29.25610,   13.25000,    0.00000
2562,   29.68911,   15.50000,    0.00000
2563,   24.92597,    3.25000,    0.00000
2564,   27.95706,    9.00000,    0.00000
2565,   28.82309,   11.50000,    0.00000
2566,   27.21452,    7.22706,    0.00000
2567,   27.04589,    6.85915,    0.00000
2568,   24.49296,    2.50000,    0.00000
2569,   22.50000,    0.00000,    0.00000
2570,   29.68911,   15.00000,    0.00000
2571,   30.10177,   19.29167,    0.00000
2572,   27.47097,    7.65471,    0.00000
2573,   27.67630,    8.10934,    0.00000
2574,   29.25610,   12.75000,    0.00000
2575,   23.16160,    0.70833,    0.00000
2576,   30.12212,   18.75000,    0.00000
2577,   30.12212,   18.25000,    0.00000
2578,   28.39007,    9.75000,    0.00000
2579,   29.68911,   14.50000,    0.00000
2580,   28.82309,   11.00000,    0.00000
2581,   24.05995,    1.75000,    0.00000
2582,   30.12212,   17.75000,    0.00000
2583,   25.79200,    4.25000,    0.00000
2584,   27.95706,    8.50000,    0.00000
2585,   30.12212,   17.25000,    0.00000
2586,   25.35898,    3.50000,    0.00000
2587,   29.25610,   12.25000,    0.00000
2588,   29.68911,   14.00000,    0.00000
2589,   30.12212,   16.75000,    0.00000
2590,   24.92597,    2.75000,    0.00000
2591,   26.40016,    5.09365,    0.00000
2592,   23.62693,    1.00000,    0.00000
2593,   28.82309,   10.50000,    0.00000
2594,   30.12212,   16.25000,    0.00000
2595,   28.39007,    9.25000,    0.00000
2596,   29.68911,   13.50000,    0.00000
2597,   24.49296,    2.00000,    0.00000
2598,   29.25610,   11.75000,    0.00000
2599,   26.79031,    5.61908,    0.00000
2600,   30.12212,   15.75000,    0.00000
2601,   27.04886,    6.04509,    0.00000
2602,   27.25785,    6.41130,    0.00000
2603,   23.00000,    0.00000,    0.00000
2604,   26.25984,    4.52297,    0.00000
2605,   25.79200,    3.75000,    0.00000
2606,   27.70749,    7.27412,    0.00000
2607,   30.12212,   15.25000,    0.00000
2608,   30.50000,   20.00000,    0.00000
2609,   29.68911,   13.00000,    0.00000
2610,   24.05995,    1.25000,    0.00000
2611,   27.51531,    6.83367,    0.00000
2612,   28.82309,   10.00000,    0.00000
2613,   25.35898,    3.00000,    0.00000
2614,   29.25610,   11.25000,    0.00000
2615,   28.39007,    8.75000,    0.00000
2616,   27.96408,    7.70187,    0.00000
2617,   30.55514,   19.50000,    0.00000
2618,   30.55514,   19.00000,    0.00000
2619,   30.12212,   14.75000,    0.00000
2620,   30.55514,   18.50000,    0.00000
2621,   24.92597,    2.25000,    0.00000
2622,   30.55514,   18.00000,    0.00000
2623,   29.68911,   12.50000,    0.00000
2624,   23.62693,    0.50000,    0.00000
2625,   28.28911,    8.18732,    0.00000
2626,   30.55514,   17.50000,    0.00000
2627,   30.12212,   14.25000,    0.00000
2628,   28.82309,    9.50000,    0.00000
2629,   29.25610,   10.75000,    0.00000
2630,   24.49296,    1.50000,    0.00000
2631,   30.55514,   17.00000,    0.00000
2632,   26.22501,    4.00000,    0.00000
2633,   29.68911,   12.00000,    0.00000
2634,   24.01803,    0.79944,    0.00000
2635,   25.79200,    3.25000,    0.00000
2636,   30.55514,   16.50000,    0.00000
2637,   30.12212,   13.75000,    0.00000
2638,   25.35898,    2.50000,    0.00000
2639,   30.55514,   16.00000,    0.00000
2640,   27.03346,    5.18360,    0.00000
2641,   26.76713,    4.69724,    0.00000
2642,   29.25610,   10.25000,    0.00000
2643,   28.82309,    9.00000,    0.00000
2644,   27.28894,    5.60761,    0.00000
2645,   26.56516,    4.30234,    0.00000
2646,   23.50000,    0.00000,    0.00000
2647,   30.12212,   13.25000,    0.00000
2648,   27.93182,    6.84915,    0.00000
2649,   29.68911,   11.50000,    0.00000
2650,   30.55514,   15.50000,    0.00000
2651,   27.54768,    6.03089,    0.00000
2652,   24.92597,    1.75000,    0.00000
2653,   27.73566,    6.39081,    0.00000
2654,   28.39007,    7.75000,    0.00000
2655,   30.55514,   15.00000,    0.00000
2656,   30.12212,   12.75000,    0.00000
2657,   26.22501,    3.50000,    0.00000
2658,   30.98815,   19.25000,    0.00000
2659,   29.25610,    9.75000,    0.00000
2660,   31.00000,   20.00000,    0.00000
2661,   30.98815,   18.75000,    0.00000
2662,   29.68911,   11.00000,    0.00000
2663,   28.29563,    7.27069,    0.00000
2664,   25.79200,    2.75000,    0.00000
2665,   28.82309,    8.50000,    0.00000
2666,   30.98815,   18.25000,    0.00000
2667,   30.55514,   14.50000,    0.00000
2668,   30.98815,   17.75000,    0.00000
2669,   25.35898,    2.00000,    0.00000
2670,   30.12212,   12.25000,    0.00000
2671,   30.98815,   17.25000,    0.00000
2672,   30.55514,   14.00000,    0.00000
2673,   24.52635,    0.81417,    0.00000
2674,   30.98815,   16.75000,    0.00000
2675,   24.25000,    0.43301,    0.00000
2676,   29.25610,    9.25000,    0.00000
2677,   29.68911,   10.50000,    0.00000
2678,   24.92597,    1.25000,    0.00000
2679,   30.98815,   16.25000,    0.00000
2680,   26.65802,    3.75000,    0.00000
2681,   28.82309,    8.00000,    0.00000
2682,   30.12212,   11.75000,    0.00000
2683,   30.55514,   13.50000,    0.00000
2684,   24.00000,    0.00000,    0.00000
2685,   26.22501,    3.00000,    0.00000
2686,   27.51295,    5.16617,    0.00000
2687,   27.29055,    4.75591,    0.00000
2688,   27.06348,    4.32861,    0.00000
2689,   30.98815,   15.75000,    0.00000
2690,   27.77275,    5.58879,    0.00000
2691,   25.79200,    2.25000,    0.00000
2692,   28.22663,    6.44710,    0.00000
2693,   29.68911,   10.00000,    0.00000
2694,   28.42976,    6.81970,    0.00000
2695,   28.04610,    6.00629,    0.00000
2696,   29.25610,    8.75000,    0.00000
2697,   30.55514,   13.00000,    0.00000
2698,   30.98815,   15.25000,    0.00000
2699,   30.12212,   11.25000,    0.00000
2700,   25.35898,    1.50000,    0.00000
2701,   28.82309,    7.50000,    0.00000
2702,   31.42116,   19.50000,    0.00000
2703,   30.98815,   14.75000,    0.00000
2704,   31.42116,   19.00000,    0.00000
2705,   31.42116,   18.50000,    0.00000
2706,   30.55514,   12.50000,    0.00000
2707,   25.71427,    1.84135,    0.00000
2708,   26.65802,    3.25000,    0.00000
2709,   31.42116,   18.00000,    0.00000
2710,   29.68911,    9.50000,    0.00000
2711,   24.97732,    0.81689,    0.00000
2712,   31.50000,   20.00000,    0.00000
2713,   30.12212,   10.75000,    0.00000
2714,   30.98815,   14.25000,    0.00000
2715,   31.42116,   17.50000,    0.00000
2716,   29.25610,    8.25000,    0.00000
2717,   26.22501,    2.50000,    0.00000
2718,   24.75000,    0.43301,    0.00000
2719,   31.42116,   17.00000,    0.00000
2720,   30.55514,   12.00000,    0.00000
2721,   30.98815,   13.75000,    0.00000
2722,   31.42116,   16.50000,    0.00000
2723,   28.82309,    7.00000,    0.00000
2724,   24.50000,    0.00000,    0.00000
2725,   30.12212,   10.25000,    0.00000
2726,   29.68911,    9.00000,    0.00000
2727,   25.37029,    1.05746,    0.00000
2728,   31.42116,   16.00000,    0.00000
2729,   27.78697,    4.76698,    0.00000
2730,   28.44276,    6.02261,    0.00000
2731,   27.99672,    5.14613,    0.00000
2732,   27.55861,    4.33794,    0.00000
2733,   30.98815,   13.25000,    0.00000
2734,   30.55514,   11.50000,    0.00000
2735,   27.33338,    3.91340,    0.00000
2736,   29.25610,    7.75000,    0.00000
2737,   27.09103,    3.50000,    0.00000
2738,   31.42116,   15.50000,    0.00000
2739,   28.27111,    5.56295,    0.00000
2740,   26.65802,    2.75000,    0.00000
2741,   28.72057,    6.43133,    0.00000
2742,   26.22501,    2.00000,    0.00000
2743,   31.42116,   15.00000,    0.00000
2744,   30.12212,    9.75000,    0.00000
2745,   30.98815,   12.75000,    0.00000
2746,   25.80695,    1.35745,    0.00000
2747,   29.68911,    8.50000,    0.00000
2748,   30.55514,   11.00000,    0.00000
2749,   31.85417,   18.75000,    0.00000
2750,   31.87848,   19.29167,    0.00000
2751,   31.42116,   14.50000,    0.00000
2752,   31.85417,   18.25000,    0.00000
2753,   29.25610,    7.25000,    0.00000
2754,   31.85417,   17.75000,    0.00000
2755,   25.31399,    0.52982,    0.00000
2756,   30.98815,   12.25000,    0.00000
2757,   31.85417,   17.25000,    0.00000
2758,   30.12212,    9.25000,    0.00000
2759,   27.09103,    3.00000,    0.00000
2760,   31.42116,   14.00000,    0.00000
2761,   30.55514,   10.50000,    0.00000
2762,   32.00000,   20.00000,    0.00000
2763,   25.00000,    0.00000,    0.00000
2764,   31.85417,   16.75000,    0.00000
2765,   29.68911,    8.00000,    0.00000
2766,   26.23899,    1.60823,    0.00000
2767,   26.71466,    2.27997,    0.00000
2768,   30.98815,   11.75000,    0.00000
2769,   31.85417,   16.25000,    0.00000
2770,   27.75000,    3.89711,    0.00000
2771,   31.42116,   13.50000,    0.00000
2772,   28.00000,    4.33013,    0.00000
2773,   27.50000,    3.46410,    0.00000
2774,   29.21424,    6.72059,    0.00000
2775,   28.49340,    5.18315,    0.00000
2776,   28.72862,    5.62382,    0.00000
2777,   25.80419,    0.86477,    0.00000
2778,   31.85417,   15.75000,    0.00000
2779,   28.28269,    4.73835,    0.00000
2780,   30.55514,   10.00000,    0.00000
2781,   30.12212,    8.75000,    0.00000
2782,   27.04274,    2.55862,    0.00000
2783,   31.42116,   13.00000,    0.00000
2784,   30.98815,   11.25000,    0.00000
2785,   31.85417,   15.25000,    0.00000
2786,   29.68911,    7.50000,    0.00000
2787,   29.10748,    6.14222,    0.00000
2788,   32.27888,   19.53690,    0.00000
2789,   31.85417,   14.75000,    0.00000
2790,   32.28719,   19.00000,    0.00000
2791,   31.42116,   12.50000,    0.00000
2792,   30.55514,    9.50000,    0.00000
2793,   32.28719,   18.50000,    0.00000
2794,   30.12212,    8.25000,    0.00000
2795,   25.73958,    0.43270,    0.00000
2796,   30.98815,   10.75000,    0.00000
2797,   32.28719,   18.00000,    0.00000
2798,   31.85417,   14.25000,    0.00000
2799,   32.28719,   17.50000,    0.00000
2800,   25.50000,    0.00000,    0.00000
2801,   29.68911,    7.00000,    0.00000
2802,   31.42116,   12.00000,    0.00000
2803,   32.28719,   17.00000,    0.00000
2804,   26.83886,    1.76477,    0.00000
2805,   31.85417,   13.75000,    0.00000
2806,   30.55514,    9.00000,    0.00000
2807,   32.28719,   16.50000,    0.00000
2808,   30.98815,   10.25000,    0.00000
2809,   26.36433,    1.00189,    0.00000
2810,   32.50000,   20.00000,    0.00000
2811,   28.25000,    3.89711,    0.00000
2812,   30.12212,    7.75000,    0.00000
2813,   28.00000,    3.46410,    0.00000
2814,   28.50000,    4.33013,    0.00000
2815,   27.75000,    3.03109,    0.00000
2816,   32.28719,   16.00000,    0.00000
2817,   28.75000,    4.76314,    0.00000
2818,   27.50000,    2.59808,    0.00000
2819,   31.42116,   11.50000,    0.00000
2820,   28.99121,    5.19889,    0.00000
2821,   29.22610,    5.66780,    0.00000
2822,   31.85417,   13.25000,    0.00000
2823,   27.25000,    2.16506,    0.00000
2824,   32.28719,   15.50000,    0.00000
2825,   29.68911,    6.50000,    0.00000
2826,   26.75000,    1.29904,    0.00000
2827,   30.98815,    9.75000,    0.00000
2828,   30.55514,    8.50000,    0.00000
2829,   31.85417,   12.75000,    0.00000
2830,   32.28719,   15.00000,    0.00000
2831,   26.19302,    0.45539,    0.00000
2832,   31.42116,   11.00000,    0.00000
2833,   30.12212,    7.25000,    0.00000
2834,   32.72871,   19.39286,    0.00000
2835,   32.72020,   18.75000,    0.00000
2836,   32.28719,   14.50000,    0.00000
2837,   32.72020,   18.25000,    0.00000
2838,   31.85417,   12.25000,    0.00000
2839,   32.72020,   17.75000,    0.00000
2840,   30.98815,    9.25000,    0.00000
2841,   26.00000,    0.00000,    0.00000
2842,   29.66949,    5.98987,    0.00000
2843,   31.42116,   10.50000,    0.00000
2844,   30.55514,    8.00000,    0.00000
2845,   32.72020,   17.25000,    0.00000
2846,   32.28719,   14.00000,    0.00000
2847,   32.72020,   16.75000,    0.00000
2848,   31.85417,   11.75000,    0.00000
2849,   30.12212,    6.75000,    0.00000
2850,   32.72020,   16.25000,    0.00000
2851,   32.28719,   13.50000,    0.00000
2852,   28.50000,    3.46410,    0.00000
2853,   28.75000,    3.89711,    0.00000
2854,   28.25000,    3.03109,    0.00000
2855,   29.00000,    4.33013,    0.00000
2856,   28.00000,    2.59808,    0.00000
2857,   30.98815,    8.75000,    0.00000
2858,   31.42116,   10.00000,    0.00000
2859,   29.25000,    4.76314,    0.00000
2860,   27.75000,    2.16506,    0.00000
2861,   32.72020,   15.75000,    0.00000
2862,   33.00000,   20.00000,    0.00000
2863,   29.50000,    5.19615,    0.00000
2864,   30.55514,    7.50000,    0.00000
2865,   27.50000,    1.73205,    0.00000
2866,   29.70354,    5.55999,    0.00000
2867,   31.85417,   11.25000,    0.00000
2868,   32.28719,   13.00000,    0.00000
2869,   27.25000,    1.29904,    0.00000
2870,   26.97739,    0.88867,    0.00000
2871,   32.72020,   15.25000,    0.00000
2872,   30.12212,    6.25000,    0.00000
2873,   31.42116,    9.50000,    0.00000
2874,   32.72020,   14.75000,    0.00000
2875,   30.98815,    8.25000,    0.00000
2876,   26.75000,    0.43301,    0.00000
2877,   32.28719,   12.50000,    0.00000
2878,   33.15321,   19.50000,    0.00000
2879,   33.15321,   19.00000,    0.00000
2880,   31.85417,   10.75000,    0.00000
2881,   33.15321,   18.50000,    0.00000
2882,   26.50000,    0.00000,    0.00000
2883,   30.55514,    7.00000,    0.00000
2884,   33.15321,   18.00000,    0.00000
2885,   32.72020,   14.25000,    0.00000
2886,   33.15321,   17.50000,    0.00000
2887,   32.28719,   12.00000,    0.00000
2888,   33.15321,   17.00000,    0.00000
2889,   31.42116,    9.00000,    0.00000
2890,   32.72020,   13.75000,    0.00000
2891,   31.85417,   10.25000,    0.00000
2892,   30.98815,    7.75000,    0.00000
2893,   30.12212,    5.75000,    0.00000
2894,   33.15321,   16.50000,    0.00000
2895,   29.00000,    3.46410,    0.00000
2896,   28.75000,    3.03109,    0.00000
2897,   32.28719,   11.50000,    0.00000
2898,   29.25000,    3.89711,    0.00000
2899,   28.50000,    2.59808,    0.00000
2900,   33.15321,   16.00000,    0.00000
2901,   29.50000,    4.33013,    0.00000
2902,   30.55514,    6.50000,    0.00000
2903,   28.25000,    2.16506,    0.00000
2904,   32.72020,   13.25000,    0.00000
2905,   29.75000,    4.76314,    0.00000
2906,   28.00000,    1.73205,    0.00000
2907,   30.00000,    5.19615,    0.00000
2908,   33.15321,   15.50000,    0.00000
2909,   31.42116,    8.50000,    0.00000
2910,   31.85417,    9.75000,    0.00000
2911,   27.75000,    1.29904,    0.00000
2912,   33.50000,   20.00000,    0.00000
2913,   27.50000,    0.86603,    0.00000
2914,   30.98815,    7.25000,    0.00000
2915,   32.72020,   12.75000,    0.00000
2916,   32.28719,   11.00000,    0.00000
2917,   33.15321,   15.00000,    0.00000
2918,   30.50818,    6.05464,    0.00000
2919,   27.25000,    0.43301,    0.00000
2920,   33.57185,   19.29167,    0.00000
2921,   27.00000,    0.00000,    0.00000
2922,   33.15321,   14.50000,    0.00000
2923,   33.58623,   18.75000,    0.00000
2924,   31.85417,    9.25000,    0.00000
2925,   32.72020,   12.25000,    0.00000
2926,   33.58623,   18.25000,    0.00000
2927,   31.42116,    8.00000,    0.00000
2928,   32.28719,   10.50000,    0.00000
2929,   33.58623,   17.75000,    0.00000
2930,   33.15321,   14.00000,    0.00000
2931,   33.58623,   17.25000,    0.00000
2932,   30.98815,    6.75000,    0.00000
2933,   33.58623,   16.75000,    0.00000
2934,   32.72020,   11.75000,    0.00000
2935,   31.85417,    8.75000,    0.00000
2936,   33.15321,   13.50000,    0.00000
2937,   33.58623,   16.25000,    0.00000
2938,   32.28719,   10.00000,    0.00000
2939,   29.25000,    3.03109,    0.00000
2940,   31.42116,    7.50000,    0.00000
2941,   29.50000,    3.46410,    0.00000
2942,   29.00000,    2.59808,    0.00000
2943,   29.75000,    3.89711,    0.00000
2944,   28.75000,    2.16506,    0.00000
2945,   30.00000,    4.33013,    0.00000
2946,   28.50000,    1.73205,    0.00000
2947,   33.58623,   15.75000,    0.00000
2948,   32.72020,   11.25000,    0.00000
2949,   30.25000,    4.76314,    0.00000
2950,   28.25000,    1.29904,    0.00000
2951,   33.15321,   13.00000,    0.00000
2952,   30.50000,    5.19615,    0.00000
2953,   28.00000,    0.86603,    0.00000
2954,   33.58623,   15.25000,    0.00000
2955,   30.75000,    5.62917,    0.00000
2956,   30.99153,    6.14405,    0.00000
2957,   32.28719,    9.50000,    0.00000
2958,   31.85417,    8.25000,    0.00000
2959,   27.75000,    0.43301,    0.00000
2960,   33.15321,   12.50000,    0.00000
2961,   33.58623,   14.75000,    0.00000
2962,   34.00000,   20.00000,    0.00000
2963,   32.72020,   10.75000,    0.00000
2964,   27.50000,    0.00000,    0.00000
2965,   31.42116,    7.00000,    0.00000
2966,   34.01924,   19.50000,    0.00000
2967,   34.01924,   19.00000,    0.00000
2968,   34.01924,   18.50000,    0.00000
2969,   33.58623,   14.25000,    0.00000
2970,   34.01924,   18.00000,    0.00000
2971,   33.15321,   12.00000,    0.00000
2972,   32.28719,    9.00000,    0.00000
2973,   34.01924,   17.50000,    0.00000
2974,   31.85417,    7.75000,    0.00000
2975,   32.72020,   10.25000,    0.00000
2976,   34.01924,   17.00000,    0.00000
2977,   33.58623,   13.75000,    0.00000
2978,   31.42116,    6.50000,    0.00000
2979,   34.01924,   16.50000,    0.00000
2980,   33.15321,   11.50000,    0.00000
2981,   29.75000,    3.03109,    0.00000
2982,   29.50000,    2.59808,    0.00000
2983,   34.01924,   16.00000,    0.00000
2984,   30.00000,    3.46410,    0.00000
2985,   33.58623,   13.25000,    0.00000
2986,   29.25000,    2.16506,    0.00000
2987,   30.25000,    3.89711,    0.00000
2988,   32.28719,    8.50000,    0.00000
2989,   29.00000,    1.73205,    0.00000
2990,   32.72020,    9.75000,    0.00000
2991,   30.50000,    4.33013,    0.00000
2992,   28.75000,    1.29904,    0.00000
2993,   31.85417,    7.25000,    0.00000
2994,   34.01924,   15.50000,    0.00000
2995,   30.75000,    4.76314,    0.00000
2996,   28.50000,    0.86603,    0.00000
2997,   33.15321,   11.00000,    0.00000
2998,   31.00000,    5.19615,    0.00000
2999,   33.58623,   12.75000,    0.00000
3000,   28.25000,    0.43301,    0.00000
3001,   34.01924,   15.00000,    0.00000
3002,   31.25000,    5.62917,    0.00000
3003,   31.42116,    6.00000,    0.00000
3004,   28.00000,    0.00000,    0.00000
3005,   32.72020,    9.25000,    0.00000
3006,   32.28719,    8.00000,    0.00000
3007,   34.45225,   19.25000,    0.00000
3008,   34.01924,   14.50000,    0.00000
3009,   33.58623,   12.25000,    0.00000
3010,   34.45225,   18.75000,    0.00000
3011,   33.15321,   10.50000,    0.00000
3012,   34.45225,   18.25000,    0.00000
3013,   34.50000,   20.00000,    0.00000
3014,   31.85417,    6.75000,    0.00000
3015,   34.45225,   17.75000,    0.00000
3016,   34.01924,   14.00000,    0.00000
3017,   34.45225,   17.25000,    0.00000
3018,   33.58623,   11.75000,    0.00000
3019,   32.72020,    8.75000,    0.00000
3020,   34.45225,   16.75000,    0.00000
3021,   32.28719,    7.50000,    0.00000
3022,   33.15321,   10.00000,    0.00000
3023,   34.01924,   13.50000,    0.00000
3024,   34.45225,   16.25000,    0.00000
3025,   30.00000,    2.59808,    0.00000
3026,   30.25000,    3.03109,    0.00000
3027,   29.75000,    2.16506,    0.00000
3028,   30.50000,    3.46410,    0.00000
3029,   31.85417,    6.25000,    0.00000
3030,   29.50000,    1.73205,    0.00000
3031,   33.58623,   11.25000,    0.00000
3032,   30.75000,    3.89711,    0.00000
3033,   34.45225,   15.75000,    0.00000
3034,   29.25000,    1.29904,    0.00000
3035,   34.01924,   13.00000,    0.00000
3036,   31.00000,    4.33013,    0.00000
3037,   29.00000,    0.86603,    0.00000
3038,   32.72020,    8.25000,    0.00000
3039,   31.25000,    4.76314,    0.00000
3040,   33.15321,    9.50000,    0.00000
3041,   28.75000,    0.43301,    0.00000
3042,   34.45225,   15.25000,    0.00000
3043,   31.50000,    5.19615,    0.00000
3044,   32.28719,    7.00000,    0.00000
3045,   28.50000,    0.00000,    0.00000
3046,   34.01924,   12.50000,    0.00000
3047,   33.58623,   10.75000,    0.00000
3048,   34.45225,   14.75000,    0.00000
3049,   31.75000,    5.62917,    0.00000
3050,   34.88526,   19.50000,    0.00000
3051,   34.88526,   19.00000,    0.00000
3052,   34.88526,   18.50000,    0.00000
3053,   34.45225,   14.25000,    0.00000
3054,   33.15321,    9.00000,    0.00000
3055,   32.72020,    7.75000,    0.00000
3056,   34.88526,   18.00000,    0.00000
3057,   34.01924,   12.00000,    0.00000
3058,   33.58623,   10.25000,    0.00000
3059,   34.88526,   17.50000,    0.00000
3060,   32.28719,    6.50000,    0.00000
3061,   35.00000,   20.00000,    0.00000
3062,   34.88526,   17.00000,    0.00000
3063,   34.45225,   13.75000,    0.00000
3064,   34.88526,   16.50000,    0.00000
3065,   34.01924,   11.50000,    0.00000
3066,   33.15321,    8.50000,    0.00000
3067,   34.45225,   13.25000,    0.00000
3068,   34.88526,   16.00000,    0.00000
3069,   30.50000,    2.59808,    0.00000
3070,   33.58623,    9.75000,    0.00000
3071,   30.25000,    2.16506,    0.00000
3072,   32.72020,    7.25000,    0.00000
3073,   30.75000,    3.03109,    0.00000
3074,   30.00000,    1.73205,    0.00000
3075,   31.00000,    3.46410,    0.00000
3076,   29.75000,    1.29904,    0.00000
3077,   31.25000,    3.89711,    0.00000
3078,   29.50000,    0.86603,    0.00000
3079,   34.88526,   15.50000,    0.00000
3080,   31.50000,    4.33013,    0.00000
3081,   34.01924,   11.00000,    0.00000
3082,   29.25000,    0.43301,    0.00000
3083,   32.28719,    6.00000,    0.00000
3084,   34.45225,   12.75000,    0.00000
3085,   31.75000,    4.76314,    0.00000
3086,   29.00000,    0.00000,    0.00000
3087,   34.88526,   15.00000,    0.00000
3088,   33.15321,    8.00000,    0.00000
3089,   32.00000,    5.19615,    0.00000
3090,   33.58623,    9.25000,    0.00000
3091,   32.72020,    6.75000,    0.00000
3092,   34.45225,   12.25000,    0.00000
3093,   34.88526,   14.50000,    0.00000
3094,   34.01924,   10.50000,    0.00000
3095,   35.31828,   18.75000,    0.00000
3096,   32.25744,    5.53013,    0.00000
3097,   35.34856,   19.29167,    0.00000
3098,   35.31828,   18.25000,    0.00000
3099,   35.31828,   17.75000,    0.00000
3100,   34.88526,   14.00000,    0.00000
3101,   33.58623,    8.75000,    0.00000
3102,   35.31828,   17.25000,    0.00000
3103,   34.45225,   11.75000,    0.00000
3104,   33.15321,    7.50000,    0.00000
3105,   34.01924,   10.00000,    0.00000
3106,   35.31828,   16.75000,    0.00000
3107,   34.88526,   13.50000,    0.00000
3108,   32.72020,    6.25000,    0.00000
3109,   35.50000,   20.00000,    0.00000
3110,   35.31828,   16.25000,    0.00000
3111,   34.45225,   11.25000,    0.00000
3112,   30.75000,    2.16506,    0.00000
3113,   31.00000,    2.59808,    0.00000
3114,   30.50000,    1.73205,    0.00000
3115,   31.25000,    3.03109,    0.00000
3116,   30.25000,    1.29904,    0.00000
3117,   35.31828,   15.75000,    0.00000
3118,   31.50000,    3.46410,    0.00000
3119,   34.88526,   13.00000,    0.00000
3120,   33.58623,    8.25000,    0.00000
3121,   30.00000,    0.86603,    0.00000
3122,   31.75000,    3.89711,    0.00000
3123,   34.01924,    9.50000,    0.00000
3124,   29.75000,    0.43301,    0.00000
3125,   33.15321,    7.00000,    0.00000
3126,   32.00000,    4.33013,    0.00000
3127,   35.31828,   15.25000,    0.00000
3128,   29.50000,    0.00000,    0.00000
3129,   32.25000,    4.76314,    0.00000
3130,   34.45225,   10.75000,    0.00000
3131,   34.88526,   12.50000,    0.00000
3132,   35.31828,   14.75000,    0.00000
3133,   32.50000,    5.19615,    0.00000
3134,   33.58623,    7.75000,    0.00000
3135,   34.01924,    9.00000,    0.00000
3136,   35.75129,   19.50000,    0.00000
3137,   32.75000,    5.62917,    0.00000
3138,   35.75129,   19.00000,    0.00000
3139,   35.75129,   18.50000,    0.00000
3140,   35.31828,   14.25000,    0.00000
3141,   34.88526,   12.00000,    0.00000
3142,   33.15321,    6.50000,    0.00000
3143,   34.45225,   10.25000,    0.00000
3144,   35.75129,   18.00000,    0.00000
3145,   35.75129,   17.50000,    0.00000
3146,   35.31828,   13.75000,    0.00000
3147,   35.75129,   17.00000,    0.00000
3148,   34.88526,   11.50000,    0.00000
3149,   34.01924,    8.50000,    0.00000
3150,   35.75129,   16.50000,    0.00000
3151,   33.58623,    7.25000,    0.00000
3152,   34.45225,    9.75000,    0.00000
3153,   35.31828,   13.25000,    0.00000
3154,   35.75129,   16.00000,    0.00000
3155,   31.25000,    2.16506,    0.00000
3156,   31.00000,    1.73205,    0.00000
3157,   31.50000,    2.59808,    0.00000
3158,   33.15321,    6.00000,    0.00000
3159,   30.75000,    1.29904,    0.00000
3160,   36.00000,   20.00000,    0.00000
3161,   31.75000,    3.03109,    0.00000
3162,   30.50000,    0.86603,    0.00000
3163,   32.00000,    3.46410,    0.00000
3164,   30.25000,    0.43301,    0.00000
3165,   34.88526,   11.00000,    0.00000
3166,   35.75129,   15.50000,    0.00000
3167,   32.25000,    3.89711,    0.00000
3168,   35.31828,   12.75000,    0.00000
3169,   30.00000,    0.00000,    0.00000
3170,   34.01924,    8.00000,    0.00000
3171,   32.50000,    4.33013,    0.00000
3172,   34.45225,    9.25000,    0.00000
3173,   35.75129,   15.00000,    0.00000
3174,   33.58623,    6.75000,    0.00000
3175,   32.75000,    4.76314,    0.00000
3176,   34.88526,   10.50000,    0.00000
3177,   35.31828,   12.25000,    0.00000
3178,   36.15358,   19.29167,    0.00000
3179,   33.00000,    5.19615,    0.00000
3180,   35.75129,   14.50000,    0.00000
3181,   36.18430,   18.75000,    0.00000
3182,   36.18430,   18.25000,    0.00000
3183,   34.45225,    8.75000,    0.00000
3184,   34.01924,    7.50000,    0.00000
3185,   33.23064,    5.53013,    0.00000
3186,   35.75129,   14.00000,    0.00000
3187,   36.18430,   17.75000,    0.00000
3188,   35.31828,   11.75000,    0.00000
3189,   36.18430,   17.25000,    0.00000
3190,   34.88526,   10.00000,    0.00000
3191,   33.58623,    6.25000,    0.00000
3192,   36.18430,   16.75000,    0.00000
3193,   35.75129,   13.50000,    0.00000
3194,   36.18430,   16.25000,    0.00000
3195,   35.31828,   11.25000,    0.00000
3196,   34.45225,    8.25000,    0.00000
3197,   31.50000,    1.73205,    0.00000
3198,   31.75000,    2.16506,    0.00000
3199,   31.25000,    1.29904,    0.00000
3200,   34.01924,    7.00000,    0.00000
3201,   32.00000,    2.59808,    0.00000
3202,   31.00000,    0.86603,    0.00000
3203,   35.75129,   13.00000,    0.00000
3204,   34.88526,    9.50000,    0.00000
3205,   36.18430,   15.75000,    0.00000
3206,   32.25000,    3.03109,    0.00000
3207,   30.75000,    0.43301,    0.00000
3208,   32.50000,    3.46410,    0.00000
3209,   30.50000,    0.00000,    0.00000
3210,   32.75000,    3.89711,    0.00000
3211,   36.18430,   15.25000,    0.00000
3212,   36.50000,   20.00000,    0.00000
3213,   35.31828,   10.75000,    0.00000
3214,   35.75129,   12.50000,    0.00000
3215,   33.00000,    4.33013,    0.00000
3216,   36.18430,   14.75000,    0.00000
3217,   34.45225,    7.75000,    0.00000
3218,   33.25000,    4.76314,    0.00000
3219,   34.88526,    9.00000,    0.00000
3220,   34.01924,    6.50000,    0.00000
3221,   36.61731,   19.50000,    0.00000
3222,   33.50000,    5.19615,    0.00000
3223,   36.61731,   19.00000,    0.00000
3224,   35.75129,   12.00000,    0.00000
3225,   36.18430,   14.25000,    0.00000
3226,   35.31828,   10.25000,    0.00000
3227,   36.61731,   18.50000,    0.00000
3228,   36.61731,   18.00000,    0.00000
3229,   33.75000,    5.62917,    0.00000
3230,   36.61731,   17.50000,    0.00000
3231,   36.18430,   13.75000,    0.00000
3232,   34.88526,    8.50000,    0.00000
3233,   34.45225,    7.25000,    0.00000
3234,   36.61731,   17.00000,    0.00000
3235,   35.75129,   11.50000,    0.00000
3236,   35.31828,    9.75000,    0.00000
3237,   36.61731,   16.50000,    0.00000
3238,   34.01924,    6.00000,    0.00000
3239,   36.18430,   13.25000,    0.00000
3240,   36.61731,   16.00000,    0.00000
3241,   32.00000,    1.73205,    0.00000
3242,   31.75000,    1.29904,    0.00000
3243,   32.25000,    2.16506,    0.00000
3244,   31.50000,    0.86603,    0.00000
3245,   32.50000,    2.59808,    0.00000
3246,   35.75129,   11.00000,    0.00000
3247,   31.25000,    0.43301,    0.00000
3248,   32.75000,    3.03109,    0.00000
3249,   34.88526,    8.00000,    0.00000
3250,   31.00000,    0.00000,    0.00000
3251,   36.61731,   15.50000,    0.00000
3252,   36.18430,   12.75000,    0.00000
3253,   33.00000,    3.46410,    0.00000
3254,   34.45225,    6.75000,    0.00000
3255,   35.31828,    9.25000,    0.00000
3256,   33.25000,    3.89711,    0.00000
3257,   36.61731,   15.00000,    0.00000
3258,   33.50000,    4.33013,    0.00000
3259,   35.75129,   10.50000,    0.00000
3260,   37.00000,   20.00000,    0.00000
3261,   36.18430,   12.25000,    0.00000
3262,   36.61731,   14.50000,    0.00000
3263,   33.75000,    4.76314,    0.00000
3264,   34.88526,    7.50000,    0.00000
3265,   37.05033,   19.25000,    0.00000
3266,   35.31828,    8.75000,    0.00000
3267,   37.05033,   18.75000,    0.00000
3268,   34.00000,    5.19615,    0.00000
3269,   37.05033,   18.25000,    0.00000
3270,   34.45225,    6.25000,    0.00000
3271,   36.61731,   14.00000,    0.00000
3272,   36.18430,   11.75000,    0.00000
3273,   37.05033,   17.75000,    0.00000
3274,   35.75129,   10.00000,    0.00000
3275,   34.25000,    5.62917,    0.00000
3276,   37.05033,   17.25000,    0.00000
3277,   36.61731,   13.50000,    0.00000
3278,   37.05033,   16.75000,    0.00000
3279,   35.31828,    8.25000,    0.00000
3280,   36.18430,   11.25000,    0.00000
3281,   34.88526,    7.00000,    0.00000
3282,   37.05033,   16.25000,    0.00000
3283,   35.75129,    9.50000,    0.00000
3284,   32.25000,    1.29904,    0.00000
3285,   36.61731,   13.00000,    0.00000
3286,   32.50000,    1.73205,    0.00000
3287,   32.00000,    0.86603,    0.00000
3288,   32.75000,    2.16506,    0.00000
3289,   37.05033,   15.75000,    0.00000
3290,   31.75000,    0.43301,    0.00000
3291,   33.00000,    2.59808,    0.00000
3292,   31.50000,    0.00000,    0.00000
3293,   33.25000,    3.03109,    0.00000
3294,   36.18430,   10.75000,    0.00000
3295,   37.05033,   15.25000,    0.00000
3296,   33.50000,    3.46410,    0.00000
3297,   36.61731,   12.50000,    0.00000
3298,   35.31828,    7.75000,    0.00000
3299,   33.75000,    3.89711,    0.00000
3300,   35.75129,    9.00000,    0.00000
3301,   34.88526,    6.50000,    0.00000
3302,   37.05033,   14.75000,    0.00000
3303,   34.00000,    4.33013,    0.00000
3304,   36.18430,   10.25000,    0.00000
3305,   36.61731,   12.00000,    0.00000
3306,   34.25000,    4.76314,    0.00000
3307,   37.48334,   19.50000,    0.00000
3308,   37.05033,   14.25000,    0.00000
3309,   37.48334,   19.00000,    0.00000
3310,   37.50000,   20.00000,    0.00000
3311,   37.48334,   18.50000,    0.00000
3312,   37.48334,   18.00000,    0.00000
3313,   34.51129,    5.22871,    0.00000
3314,   35.31828,    7.25000,    0.00000
3315,   35.75129,    8.50000,    0.00000
3316,   37.48334,   17.50000,    0.00000
3317,   37.05033,   13.75000,    0.00000
3318,   36.61731,   11.50000,    0.00000
3319,   34.81772,    5.82450,    0.00000
3320,   37.48334,   17.00000,    0.00000
3321,   36.18430,    9.75000,    0.00000
3322,   37.48334,   16.50000,    0.00000
3323,   37.05033,   13.25000,    0.00000
3324,   37.48334,   16.00000,    0.00000
3325,   36.61731,   11.00000,    0.00000
3326,   35.75129,    8.00000,    0.00000
3327,   32.75000,    1.29904,    0.00000
3328,   32.50000,    0.86603,    0.00000
3329,   33.00000,    1.73205,    0.00000
3330,   32.25000,    0.43301,    0.00000
3331,   35.31828,    6.75000,    0.00000
3332,   33.25000,    2.16506,    0.00000
3333,   32.00000,    0.00000,    0.00000
3334,   36.18430,    9.25000,    0.00000
3335,   33.50000,    2.59808,    0.00000
3336,   37.48334,   15.50000,    0.00000
3337,   37.05033,   12.75000,    0.00000
3338,   33.75000,    3.03109,    0.00000
3339,   34.00000,    3.46410,    0.00000
3340,   37.48334,   15.00000,    0.00000
3341,   36.61731,   10.50000,    0.00000
3342,   34.25000,    3.89711,    0.00000
3343,   37.05033,   12.25000,    0.00000
3344,   35.75129,    7.50000,    0.00000
3345,   37.48334,   14.50000,    0.00000
3346,   34.50000,    4.33013,    0.00000
3347,   36.18430,    8.75000,    0.00000
3348,   35.31828,    6.25000,    0.00000
3349,   37.93029,   19.29167,    0.00000
3350,   37.91635,   18.75000,    0.00000
3351,   34.75000,    4.76314,    0.00000
3352,   37.91635,   18.25000,    0.00000
3353,   37.05033,   11.75000,    0.00000
3354,   36.61731,   10.00000,    0.00000
3355,   37.48334,   14.00000,    0.00000
3356,   37.91635,   17.75000,    0.00000
3357,   38.00000,   20.00000,    0.00000
3358,   35.00000,    5.19615,    0.00000
3359,   37.91635,   17.25000,    0.00000
3360,   35.75129,    7.00000,    0.00000
3361,   37.48334,   13.50000,    0.00000
3362,   36.18430,    8.25000,    0.00000
3363,   37.91635,   16.75000,    0.00000
3364,   37.05033,   11.25000,    0.00000
3365,   36.61731,    9.50000,    0.00000
3366,   37.91635,   16.25000,    0.00000
3367,   37.48334,   13.00000,    0.00000
3368,   33.00000,    0.86603,    0.00000
3369,   33.25000,    1.29904,    0.00000
3370,   32.75000,    0.43301,    0.00000
3371,   35.35643,    5.66113,    0.00000
3372,   37.91635,   15.75000,    0.00000
3373,   33.50000,    1.73205,    0.00000
3374,   32.50000,    0.00000,    0.00000
3375,   33.75000,    2.16506,    0.00000
3376,   37.05033,   10.75000,    0.00000
3377,   34.00000,    2.59808,    0.00000
3378,   36.18430,    7.75000,    0.00000
3379,   37.91635,   15.25000,    0.00000
3380,   35.75129,    6.50000,    0.00000
3381,   34.25000,    3.03109,    0.00000
3382,   37.48334,   12.50000,    0.00000
3383,   36.61731,    9.00000,    0.00000
3384,   34.50000,    3.46410,    0.00000
3385,   37.91635,   14.75000,    0.00000
3386,   34.75000,    3.89711,    0.00000
3387,   37.05033,   10.25000,    0.00000
3388,   37.48334,   12.00000,    0.00000
3389,   35.00000,    4.33013,    0.00000
3390,   37.91635,   14.25000,    0.00000
3391,   38.34936,   19.50000,    0.00000
3392,   38.34936,   19.00000,    0.00000
3393,   36.18430,    7.25000,    0.00000
3394,   38.34936,   18.50000,    0.00000
3395,   36.61731,    8.50000,    0.00000
3396,   35.75129,    6.00000,    0.00000
3397,   38.34936,   18.00000,    0.00000
3398,   35.25000,    4.76314,    0.00000
3399,   37.91635,   13.75000,    0.00000
3400,   38.34936,   17.50000,    0.00000
3401,   37.48334,   11.50000,    0.00000
3402,   37.05033,    9.75000,    0.00000
3403,   35.50000,    5.19615,    0.00000
3404,   38.34936,   17.00000,    0.00000
3405,   38.50000,   20.00000,    0.00000
3406,   38.34936,   16.50000,    0.00000
3407,   37.91635,   13.25000,    0.00000
3408,   36.61731,    8.00000,    0.00000
3409,   36.18430,    6.75000,    0.00000
3410,   37.48334,   11.00000,    0.00000
3411,   38.34936,   16.00000,    0.00000
3412,   37.05033,    9.25000,    0.00000
3413,   33.50000,    0.86603,    0.00000
3414,   35.75129,    5.50000,    0.00000
3415,   33.25000,    0.43301,    0.00000
3416,   33.75000,    1.29904,    0.00000
3417,   33.00000,    0.00000,    0.00000
3418,   34.00000,    1.73205,    0.00000
3419,   37.91635,   12.75000,    0.00000
3420,   38.34936,   15.50000,    0.00000
3421,   34.25000,    2.16506,    0.00000
3422,   34.50000,    2.59808,    0.00000
3423,   37.48334,   10.50000,    0.00000
3424,   34.75000,    3.03109,    0.00000
3425,   38.34936,   15.00000,    0.00000
3426,   36.61731,    7.50000,    0.00000
3427,   37.91635,   12.25000,    0.00000
3428,   36.18430,    6.25000,    0.00000
3429,   35.00000,    3.46410,    0.00000
3430,   37.05033,    8.75000,    0.00000
3431,   38.34936,   14.50000,    0.00000
3432,   35.25000,    3.89711,    0.00000
3433,   38.77313,   19.39286,    0.00000
3434,   37.48334,   10.00000,    0.00000
3435,   38.78238,   18.75000,    0.00000
3436,   37.91635,   11.75000,    0.00000
3437,   35.50000,    4.33013,    0.00000
3438,   38.34936,   14.00000,    0.00000
3439,   38.78238,   18.25000,    0.00000
3440,   38.78238,   17.75000,    0.00000
3441,   36.61731,    7.00000,    0.00000
3442,   35.75000,    4.76314,    0.00000
3443,   36.14304,    5.71224,    0.00000
3444,   37.05033,    8.25000,    0.00000
3445,   38.78238,   17.25000,    0.00000
3446,   38.34936,   13.50000,    0.00000
3447,   37.91635,   11.25000,    0.00000
3448,   38.78238,   16.75000,    0.00000
3449,   36.00000,    5.19615,    0.00000
3450,   37.48334,    9.50000,    0.00000
3451,   38.78238,   16.25000,    0.00000
3452,   38.34936,   13.00000,    0.00000
3453,   39.00000,   20.00000,    0.00000
3454,   33.75000,    0.43301,    0.00000
3455,   34.00000,    0.86603,    0.00000
3456,   38.78238,   15.75000,    0.00000
3457,   33.50000,    0.00000,    0.00000
3458,   34.25000,    1.29904,    0.00000
3459,   37.05033,    7.75000,    0.00000
3460,   36.61731,    6.50000,    0.00000
3461,   37.91635,   10.75000,    0.00000
3462,   34.50000,    1.73205,    0.00000
3463,   34.75000,    2.16506,    0.00000
3464,   37.48334,    9.00000,    0.00000
3465,   38.78238,   15.25000,    0.00000
3466,   38.34936,   12.50000,    0.00000
3467,   35.00000,    2.59808,    0.00000
3468,   35.25000,    3.03109,    0.00000
3469,   38.78238,   14.75000,    0.00000
3470,   37.91635,   10.25000,    0.00000
3471,   35.50000,    3.46410,    0.00000
3472,   38.34936,   12.00000,    0.00000
3473,   37.05033,    7.25000,    0.00000
3474,   36.61731,    6.00000,    0.00000
3475,   38.78238,   14.25000,    0.00000
3476,   37.48334,    8.50000,    0.00000
3477,   35.75000,    3.89711,    0.00000
3478,   39.22244,   19.53690,    0.00000
3479,   39.21539,   19.00000,    0.00000
3480,   39.21539,   18.50000,    0.00000
3481,   36.00000,    4.33013,    0.00000
3482,   39.21539,   18.00000,    0.00000
3483,   37.91635,    9.75000,    0.00000
3484,   38.34936,   11.50000,    0.00000
3485,   38.78238,   13.75000,    0.00000
3486,   39.21539,   17.50000,    0.00000
3487,   36.25000,    4.76314,    0.00000
3488,   39.21539,   17.00000,    0.00000
3489,   37.05033,    6.75000,    0.00000
3490,   37.48334,    8.00000,    0.00000
3491,   38.78238,   13.25000,    0.00000
3492,   39.21539,   16.50000,    0.00000
3493,   36.55405,    5.32728,    0.00000
3494,   38.34936,   11.00000,    0.00000
3495,   37.91635,    9.25000,    0.00000
3496,   39.21539,   16.00000,    0.00000
3497,   34.25000,    0.43301,    0.00000
3498,   34.00000,    0.00000,    0.00000
3499,   34.50000,    0.86603,    0.00000
3500,   38.78238,   12.75000,    0.00000
3501,   34.75000,    1.29904,    0.00000
3502,   39.21539,   15.50000,    0.00000
3503,   35.00000,    1.73205,    0.00000
3504,   39.50000,   20.00000,    0.00000
3505,   35.25000,    2.16506,    0.00000
3506,   38.34936,   10.50000,    0.00000
3507,   37.48334,    7.50000,    0.00000
3508,   37.05033,    6.25000,    0.00000
3509,   39.21539,   15.00000,    0.00000
3510,   35.50000,    2.59808,    0.00000
3511,   38.78238,   12.25000,    0.00000
3512,   37.91635,    8.75000,    0.00000
3513,   35.75000,    3.03109,    0.00000
3514,   39.21539,   14.50000,    0.00000
3515,   36.00000,    3.46410,    0.00000
3516,   39.62367,   19.29167,    0.00000
3517,   38.34936,   10.00000,    0.00000
3518,   38.78238,   11.75000,    0.00000
3519,   36.25000,    3.89711,    0.00000
3520,   39.64840,   18.75000,    0.00000
3521,   39.21539,   14.00000,    0.00000
3522,   37.48334,    7.00000,    0.00000
3523,   39.64840,   18.25000,    0.00000
3524,   37.91635,    8.25000,    0.00000
3525,   39.64840,   17.75000,    0.00000
3526,   36.50000,    4.33013,    0.00000
3527,   39.64840,   17.25000,    0.00000
3528,   39.21539,   13.50000,    0.00000
3529,   38.78238,   11.25000,    0.00000
3530,   38.34936,    9.50000,    0.00000
3531,   39.64840,   16.75000,    0.00000
3532,   36.75000,    4.76314,    0.00000
3533,   37.13643,    5.65696,    0.00000
3534,   39.64840,   16.25000,    0.00000
3535,   39.21539,   13.00000,    0.00000
3536,   37.48334,    6.50000,    0.00000
3537,   37.91635,    7.75000,    0.00000
3538,   37.00000,    5.19615,    0.00000
3539,   38.78238,   10.75000,    0.00000
3540,   39.64840,   15.75000,    0.00000
3541,   34.50000,    0.00000,    0.00000
3542,   34.75000,    0.43301,    0.00000
3543,   35.00000,    0.86603,    0.00000
3544,   38.34936,    9.00000,    0.00000
3545,   35.25000,    1.29904,    0.00000
3546,   35.50000,    1.73205,    0.00000
3547,   39.21539,   12.50000,    0.00000
3548,   39.64840,   15.25000,    0.00000
3549,   35.75000,    2.16506,    0.00000
3550,   37.46729,    6.05723,    0.00000
3551,   36.00000,    2.59808,    0.00000
3552,   38.78238,   10.25000,    0.00000
3553,   39.64840,   14.75000,    0.00000
3554,   40.00000,   20.00000,    0.00000
3555,   37.91635,    7.25000,    0.00000
3556,   39.21539,   12.00000,    0.00000
3557,   36.25000,    3.03109,    0.00000
3558,   38.34936,    8.50000,    0.00000
3559,   39.64840,   14.25000,    0.00000
3560,   36.50000,    3.46410,    0.00000
3561,   40.08142,   19.50000,    0.00000
3562,   40.08142,   19.00000,    0.00000
3563,   40.08142,   18.50000,    0.00000
3564,   38.78238,    9.75000,    0.00000
3565,   36.75000,    3.89711,    0.00000
3566,   39.21539,   11.50000,    0.00000
3567,   40.08142,   18.00000,    0.00000
3568,   39.64840,   13.75000,    0.00000
3569,   40.08142,   17.50000,    0.00000
3570,   37.91635,    6.75000,    0.00000
3571,   37.00000,    4.33013,    0.00000
3572,   38.34936,    8.00000,    0.00000
3573,   40.08142,   17.00000,    0.00000
3574,   39.64840,   13.25000,    0.00000
3575,   40.08142,   16.50000,    0.00000
3576,   39.21539,   11.00000,    0.00000
3577,   38.78238,    9.25000,    0.00000
3578,   37.25000,    4.76314,    0.00000
3579,   40.08142,   16.00000,    0.00000
3580,   39.64840,   12.75000,    0.00000
3581,   35.00000,    0.00000,    0.00000
3582,   37.50000,    5.19615,    0.00000
3583,   35.25000,    0.43301,    0.00000
3584,   35.50000,    0.86603,    0.00000
3585,   37.91635,    6.25000,    0.00000
3586,   40.08142,   15.50000,    0.00000
3587,   38.34936,    7.50000,    0.00000
3588,   35.75000,    1.29904,    0.00000
3589,   39.21539,   10.50000,    0.00000
3590,   36.00000,    1.73205,    0.00000
3591,   38.78238,    8.75000,    0.00000
3592,   40.08142,   15.00000,    0.00000
3593,   37.75000,    5.62917,    0.00000
3594,   39.64840,   12.25000,    0.00000
3595,   36.25000,    2.16506,    0.00000
3596,   36.50000,    2.59808,    0.00000
3597,   40.08142,   14.50000,    0.00000
3598,   39.21539,   10.00000,    0.00000
3599,   36.75000,    3.03109,    0.00000
3600,   38.34936,    7.00000,    0.00000
3601,   39.64840,   11.75000,    0.00000
3602,   40.50000,   20.00000,    0.00000
3603,   40.51443,   19.25000,    0.00000
3604,   38.78238,    8.25000,    0.00000
3605,   37.00000,    3.46410,    0.00000
3606,   40.08142,   14.00000,    0.00000
3607,   40.51443,   18.75000,    0.00000
3608,   40.51443,   18.25000,    0.00000
3609,   40.51443,   17.75000,    0.00000
3610,   37.25000,    3.89711,    0.00000
3611,   39.21539,    9.50000,    0.00000
3612,   39.64840,   11.25000,    0.00000
3613,   40.08142,   13.50000,    0.00000
3614,   40.51443,   17.25000,    0.00000
3615,   37.50000,    4.33013,    0.00000
3616,   40.51443,   16.75000,    0.00000
3617,   38.34936,    6.50000,    0.00000
3618,   38.78238,    7.75000,    0.00000
3619,   40.51443,   16.25000,    0.00000
3620,   40.08142,   13.00000,    0.00000
3621,   37.75000,    4.76314,    0.00000
3622,   39.64840,   10.75000,    0.00000
3623,   39.21539,    9.00000,    0.00000
3624,   40.51443,   15.75000,    0.00000
3625,   35.50000,    0.00000,    0.00000
3626,   35.75000,    0.43301,    0.00000
3627,   36.00000,    0.86603,    0.00000
3628,   40.08142,   12.50000,    0.00000
3629,   38.00000,    5.19615,    0.00000
3630,   36.25000,    1.29904,    0.00000
3631,   40.51443,   15.25000,    0.00000
3632,   36.50000,    1.73205,    0.00000
3633,   38.78238,    7.25000,    0.00000
3634,   38.34936,    6.00000,    0.00000
3635,   39.64840,   10.25000,    0.00000
3636,   36.75000,    2.16506,    0.00000
3637,   40.51443,   14.75000,    0.00000
3638,   39.21539,    8.50000,    0.00000
3639,   40.08142,   12.00000,    0.00000
3640,   37.00000,    2.59808,    0.00000
3641,   38.26987,    5.53013,    0.00000
3642,   40.51443,   14.25000,    0.00000
3643,   37.25000,    3.03109,    0.00000
3644,   40.94744,   19.50000,    0.00000
3645,   39.64840,    9.75000,    0.00000
3646,   40.94744,   19.00000,    0.00000
3647,   40.08142,   11.50000,    0.00000
3648,   40.94744,   18.50000,    0.00000
3649,   38.78238,    6.75000,    0.00000
3650,   37.50000,    3.46410,    0.00000
3651,   40.51443,   13.75000,    0.00000
3652,   40.94744,   18.00000,    0.00000
3653,   41.00000,   20.00000,    0.00000
3654,   39.21539,    8.00000,    0.00000
3655,   40.94744,   17.50000,    0.00000
3656,   37.75000,    3.89711,    0.00000
3657,   40.94744,   17.00000,    0.00000
3658,   40.51443,   13.25000,    0.00000
3659,   40.08142,   11.00000,    0.00000
3660,   39.64840,    9.25000,    0.00000
3661,   40.94744,   16.50000,    0.00000
3662,   38.00000,    4.33013,    0.00000
3663,   40.94744,   16.00000,    0.00000
3664,   38.78238,    6.25000,    0.00000
3665,   40.51443,   12.75000,    0.00000
3666,   39.21539,    7.50000,    0.00000
3667,   38.25000,    4.76314,    0.00000
3668,   36.00000,    0.00000,    0.00000
3669,   40.08142,   10.50000,    0.00000
3670,   36.25000,    0.43301,    0.00000
3671,   40.94744,   15.50000,    0.00000
3672,   36.50000,    0.86603,    0.00000
3673,   39.64840,    8.75000,    0.00000
3674,   36.75000,    1.29904,    0.00000
3675,   38.50000,    5.19615,    0.00000
3676,   40.51443,   12.25000,    0.00000
3677,   40.94744,   15.00000,    0.00000
3678,   37.00000,    1.73205,    0.00000
3679,   37.25000,    2.16506,    0.00000
3680,   40.08142,   10.00000,    0.00000
3681,   39.21539,    7.00000,    0.00000
3682,   40.94744,   14.50000,    0.00000
3683,   38.75000,    5.62917,    0.00000
3684,   37.50000,    2.59808,    0.00000
3685,   40.51443,   11.75000,    0.00000
3686,   39.64840,    8.25000,    0.00000
3687,   40.94744,   14.00000,    0.00000
3688,   37.75000,    3.03109,    0.00000
3689,   41.38045,   18.75000,    0.00000
3690,   41.40038,   19.29167,    0.00000
3691,   41.38045,   18.25000,    0.00000
3692,   40.08142,    9.50000,    0.00000
3693,   41.38045,   17.75000,    0.00000
3694,   38.00000,    3.46410,    0.00000
3695,   40.51443,   11.25000,    0.00000
3696,   40.94744,   13.50000,    0.00000
3697,   41.38045,   17.25000,    0.00000
3698,   39.21539,    6.50000,    0.00000
3699,   39.64840,    7.75000,    0.00000
3700,   41.50000,   20.00000,    0.00000
3701,   38.25000,    3.89711,    0.00000
3702,   41.38045,   16.75000,    0.00000
3703,   40.94744,   13.00000,    0.00000
3704,   41.38045,   16.25000,    0.00000
3705,   40.51443,   10.75000,    0.00000
3706,   40.08142,    9.00000,    0.00000
3707,   38.50000,    4.33013,    0.00000
3708,   41.38045,   15.75000,    0.00000
3709,   36.50000,    0.00000,    0.00000
3710,   40.94744,   12.50000,    0.00000
3711,   36.75000,    0.43301,    0.00000
3712,   38.75000,    4.76314,    0.00000
3713,   39.21539,    6.00000,    0.00000
3714,   39.64840,    7.25000,    0.00000
3715,   41.38045,   15.25000,    0.00000
3716,   37.00000,    0.86603,    0.00000
3717,   40.51443,   10.25000,    0.00000
3718,   37.25000,    1.29904,    0.00000
3719,   40.08142,    8.50000,    0.00000
3720,   41.38045,   14.75000,    0.00000
3721,   37.50000,    1.73205,    0.00000
3722,   39.00000,    5.19615,    0.00000
3723,   40.94744,   12.00000,    0.00000
3724,   37.75000,    2.16506,    0.00000
3725,   41.38045,   14.25000,    0.00000
3726,   40.51443,    9.75000,    0.00000
3727,   39.22584,    5.57526,    0.00000
3728,   38.00000,    2.59808,    0.00000
3729,   39.64840,    6.75000,    0.00000
3730,   41.81347,   19.50000,    0.00000
3731,   40.94744,   11.50000,    0.00000
3732,   41.81347,   19.00000,    0.00000
3733,   40.08142,    8.00000,    0.00000
3734,   41.81347,   18.50000,    0.00000
3735,   38.25000,    3.03109,    0.00000
3736,   41.38045,   13.75000,    0.00000
3737,   41.81347,   18.00000,    0.00000
3738,   41.81347,   17.50000,    0.00000
3739,   38.50000,    3.46410,    0.00000
3740,   40.51443,    9.25000,    0.00000
3741,   41.81347,   17.00000,    0.00000
3742,   40.94744,   11.00000,    0.00000
3743,   41.38045,   13.25000,    0.00000
3744,   41.81347,   16.50000,    0.00000
3745,   38.75000,    3.89711,    0.00000
3746,   39.64840,    6.25000,    0.00000
3747,   40.08142,    7.50000,    0.00000
3748,   42.00000,   20.00000,    0.00000
3749,   41.81347,   16.00000,    0.00000
3750,   41.38045,   12.75000,    0.00000
3751,   39.00000,    4.33013,    0.00000
3752,   40.94744,   10.50000,    0.00000
3753,   40.51443,    8.75000,    0.00000
3754,   41.81347,   15.50000,    0.00000
3755,   37.00000,    0.00000,    0.00000
3756,   37.25000,    0.43301,    0.00000
3757,   37.50000,    0.86603,    0.00000
3758,   41.38045,   12.25000,    0.00000
3759,   39.25000,    4.76314,    0.00000
3760,   39.66383,    5.85482,    0.00000
3761,   41.81347,   15.00000,    0.00000
3762,   37.75000,    1.29904,    0.00000
3763,   40.08142,    7.00000,    0.00000
3764,   40.94744,   10.00000,    0.00000
3765,   38.00000,    1.73205,    0.00000
3766,   41.81347,   14.50000,    0.00000
3767,   39.50000,    5.19615,    0.00000
3768,   40.51443,    8.25000,    0.00000
3769,   41.38045,   11.75000,    0.00000
3770,   38.25000,    2.16506,    0.00000
3771,   41.81347,   14.00000,    0.00000
3772,   38.50000,    2.59808,    0.00000
3773,   42.24749,   19.39286,    0.00000
3774,   42.24648,   18.75000,    0.00000
3775,   40.94744,    9.50000,    0.00000
3776,   42.24648,   18.25000,    0.00000
3777,   40.08142,    6.50000,    0.00000
3778,   41.38045,   11.25000,    0.00000
3779,   38.75000,    3.03109,    0.00000
3780,   42.24648,   17.75000,    0.00000
3781,   41.81347,   13.50000,    0.00000
3782,   40.51443,    7.75000,    0.00000
3783,   42.24648,   17.25000,    0.00000
3784,   39.00000,    3.46410,    0.00000
3785,   42.24648,   16.75000,    0.00000
3786,   41.81347,   13.00000,    0.00000
3787,   40.94744,    9.00000,    0.00000
3788,   41.38045,   10.75000,    0.00000
3789,   42.24648,   16.25000,    0.00000
3790,   39.25000,    3.89711,    0.00000
3791,   40.08142,    6.00000,    0.00000
3792,   42.24648,   15.75000,    0.00000
3793,   40.51443,    7.25000,    0.00000
3794,   41.81347,   12.50000,    0.00000
3795,   39.50000,    4.33013,    0.00000
3796,   42.50000,   20.00000,    0.00000
3797,   37.50000,    0.00000,    0.00000
3798,   42.24648,   15.25000,    0.00000
3799,   41.38045,   10.25000,    0.00000
3800,   37.75000,    0.43301,    0.00000
3801,   40.94744,    8.50000,    0.00000
3802,   38.00000,    0.86603,    0.00000
3803,   39.75000,    4.76314,    0.00000
3804,   42.24648,   14.75000,    0.00000
3805,   41.81347,   12.00000,    0.00000
3806,   38.25000,    1.29904,    0.00000
3807,   38.50000,    1.73205,    0.00000
3808,   40.51443,    6.75000,    0.00000
3809,   41.38045,    9.75000,    0.00000
3810,   42.24648,   14.25000,    0.00000
3811,   40.00000,    5.19615,    0.00000
3812,   38.75000,    2.16506,    0.00000
3813,   41.81347,   11.50000,    0.00000
3814,   40.94744,    8.00000,    0.00000
3815,   42.67949,   19.50000,    0.00000
3816,   42.67949,   19.00000,    0.00000
3817,   42.67949,   18.50000,    0.00000
3818,   39.00000,    2.59808,    0.00000
3819,   42.24648,   13.75000,    0.00000
3820,   42.67949,   18.00000,    0.00000
3821,   40.25000,    5.62917,    0.00000
3822,   42.67949,   17.50000,    0.00000
3823,   41.38045,    9.25000,    0.00000
3824,   39.25000,    3.03109,    0.00000
3825,   41.81347,   11.00000,    0.00000
3826,   42.24648,   13.25000,    0.00000
3827,   42.67949,   17.00000,    0.00000
3828,   40.94744,    7.50000,    0.00000
3829,   40.51031,    6.14405,    0.00000
3830,   39.50000,    3.46410,    0.00000
3831,   42.67949,   16.50000,    0.00000
3832,   42.24648,   12.75000,    0.00000
3833,   42.67949,   16.00000,    0.00000
3834,   41.81347,   10.50000,    0.00000
3835,   41.38045,    8.75000,    0.00000
3836,   39.75000,    3.89711,    0.00000
3837,   42.67949,   15.50000,    0.00000
3838,   38.00000,    0.00000,    0.00000
3839,   42.24648,   12.25000,    0.00000
3840,   40.00000,    4.33013,    0.00000
3841,   40.94744,    7.00000,    0.00000
3842,   38.25000,    0.43301,    0.00000
3843,   42.67949,   15.00000,    0.00000
3844,   38.50000,    0.86603,    0.00000
3845,   41.81347,   10.00000,    0.00000
3846,   43.00000,   20.00000,    0.00000
3847,   41.38045,    8.25000,    0.00000
3848,   38.75000,    1.29904,    0.00000
3849,   42.67949,   14.50000,    0.00000
3850,   40.25000,    4.76314,    0.00000
3851,   42.24648,   11.75000,    0.00000
3852,   39.00000,    1.73205,    0.00000
3853,   42.67949,   14.00000,    0.00000
3854,   43.09375,   19.29167,    0.00000
3855,   41.81347,    9.50000,    0.00000
3856,   39.25000,    2.16506,    0.00000
3857,   40.94744,    6.50000,    0.00000
3858,   40.50000,    5.19615,    0.00000
3859,   43.11250,   18.75000,    0.00000
3860,   42.24648,   11.25000,    0.00000
3861,   43.11250,   18.25000,    0.00000
3862,   41.38045,    7.75000,    0.00000
3863,   39.50000,    2.59808,    0.00000
3864,   43.11250,   17.75000,    0.00000
3865,   42.67949,   13.50000,    0.00000
3866,   43.11250,   17.25000,    0.00000
3867,   40.74296,    5.63245,    0.00000
3868,   39.75000,    3.03109,    0.00000
3869,   43.11250,   16.75000,    0.00000
3870,   41.81347,    9.00000,    0.00000
3871,   42.24648,   10.75000,    0.00000
3872,   42.67949,   13.00000,    0.00000
3873,   40.94744,    6.00000,    0.00000
3874,   43.11250,   16.25000,    0.00000
3875,   40.00000,    3.46410,    0.00000
3876,   41.38045,    7.25000,    0.00000
3877,   43.11250,   15.75000,    0.00000
3878,   42.67949,   12.50000,    0.00000
3879,   40.25000,    3.89711,    0.00000
3880,   42.24648,   10.25000,    0.00000
3881,   41.81347,    8.50000,    0.00000
3882,   43.11250,   15.25000,    0.00000
3883,   38.50000,    0.00000,    0.00000
3884,   38.75000,    0.43301,    0.00000
3885,   42.67949,   12.00000,    0.00000
3886,   40.50000,    4.33013,    0.00000
3887,   43.11250,   14.75000,    0.00000
3888,   39.00000,    0.86603,    0.00000
3889,   41.38045,    6.75000,    0.00000
3890,   42.24648,    9.75000,    0.00000
3891,   39.25000,    1.29904,    0.00000
3892,   43.11250,   14.25000,    0.00000
3893,   43.50000,   20.00000,    0.00000
3894,   41.81347,    8.00000,    0.00000
3895,   40.75000,    4.76314,    0.00000
3896,   42.67949,   11.50000,    0.00000
3897,   39.50000,    1.73205,    0.00000
3898,   43.54552,   19.50000,    0.00000
3899,   43.54552,   19.00000,    0.00000
3900,   43.11250,   13.75000,    0.00000
3901,   39.75000,    2.16506,    0.00000
3902,   43.54552,   18.50000,    0.00000
3903,   41.00000,    5.19615,    0.00000
3904,   43.54552,   18.00000,    0.00000
3905,   42.24648,    9.25000,    0.00000
3906,   41.38045,    6.25000,    0.00000
3907,   43.54552,   17.50000,    0.00000
3908,   42.67949,   11.00000,    0.00000
3909,   40.00000,    2.59808,    0.00000
3910,   43.11250,   13.25000,    0.00000
3911,   41.81347,    7.50000,    0.00000
3912,   43.54552,   17.00000,    0.00000
3913,   40.25000,    3.03109,    0.00000
3914,   41.25000,    5.62917,    0.00000
3915,   43.54552,   16.50000,    0.00000
3916,   43.11250,   12.75000,    0.00000
3917,   42.24648,    8.75000,    0.00000
3918,   42.67949,   10.50000,    0.00000
3919,   43.54552,   16.00000,    0.00000
3920,   40.50000,    3.46410,    0.00000
3921,   43.54552,   15.50000,    0.00000
3922,   41.81347,    7.00000,    0.00000
3923,   43.11250,   12.25000,    0.00000
3924,   40.75000,    3.89711,    0.00000
3925,   39.00000,    0.00000,    0.00000
3926,   43.54552,   15.00000,    0.00000
3927,   42.67949,   10.00000,    0.00000
3928,   42.24648,    8.25000,    0.00000
3929,   39.25000,    0.43301,    0.00000
3930,   39.50000,    0.86603,    0.00000
3931,   43.54552,   14.50000,    0.00000
3932,   41.00000,    4.33013,    0.00000
3933,   43.11250,   11.75000,    0.00000
3934,   39.75000,    1.29904,    0.00000
3935,   41.81347,    6.50000,    0.00000
3936,   42.67949,    9.50000,    0.00000
3937,   43.54552,   14.00000,    0.00000
3938,   40.00000,    1.73205,    0.00000
3939,   41.25000,    4.76314,    0.00000
3940,   43.97853,   19.25000,    0.00000
3941,   42.24648,    7.75000,    0.00000
3942,   43.11250,   11.25000,    0.00000
3943,   43.97853,   18.75000,    0.00000
3944,   44.00000,   20.00000,    0.00000
3945,   43.97853,   18.25000,    0.00000
3946,   40.25000,    2.16506,    0.00000
3947,   43.54552,   13.50000,    0.00000
3948,   43.97853,   17.75000,    0.00000
3949,   41.50000,    5.19615,    0.00000
3950,   43.97853,   17.25000,    0.00000
3951,   42.67949,    9.00000,    0.00000
3952,   40.50000,    2.59808,    0.00000
3953,   43.11250,   10.75000,    0.00000
3954,   41.81347,    6.00000,    0.00000
3955,   43.97853,   16.75000,    0.00000
3956,   43.54552,   13.00000,    0.00000
3957,   42.24648,    7.25000,    0.00000
3958,   43.97853,   16.25000,    0.00000
3959,   40.75000,    3.03109,    0.00000
3960,   43.97853,   15.75000,    0.00000
3961,   43.54552,   12.50000,    0.00000
3962,   41.76199,    5.55429,    0.00000
3963,   43.11250,   10.25000,    0.00000
3964,   42.67949,    8.50000,    0.00000
3965,   41.00000,    3.46410,    0.00000
3966,   43.97853,   15.25000,    0.00000
3967,   43.54552,   12.00000,    0.00000
3968,   39.50000,    0.00000,    0.00000
3969,   42.24648,    6.75000,    0.00000
3970,   41.25000,    3.89711,    0.00000
3971,   43.97853,   14.75000,    0.00000
3972,   39.75000,    0.43301,    0.00000
3973,   43.11250,    9.75000,    0.00000
3974,   42.67949,    8.00000,    0.00000
3975,   40.00000,    0.86603,    0.00000
3976,   43.97853,   14.25000,    0.00000
3977,   41.50000,    4.33013,    0.00000
3978,   43.54552,   11.50000,    0.00000
3979,   40.25000,    1.29904,    0.00000
3980,   44.41154,   19.50000,    0.00000
3981,   43.97853,   13.75000,    0.00000
3982,   44.41154,   19.00000,    0.00000
3983,   42.24648,    6.25000,    0.00000
3984,   40.50000,    1.73205,    0.00000
3985,   43.11250,    9.25000,    0.00000
3986,   44.41154,   18.50000,    0.00000
3987,   41.75000,    4.76314,    0.00000
3988,   44.41154,   18.00000,    0.00000
3989,   43.54552,   11.00000,    0.00000
3990,   42.67949,    7.50000,    0.00000
3991,   44.41154,   17.50000,    0.00000
3992,   40.75000,    2.16506,    0.00000
3993,   43.97853,   13.25000,    0.00000
3994,   44.50000,   20.00000,    0.00000
3995,   44.41154,   17.00000,    0.00000
3996,   42.00000,    5.19615,    0.00000
3997,   41.00000,    2.59808,    0.00000
3998,   44.41154,   16.50000,    0.00000
3999,   43.11250,    8.75000,    0.00000
4000,   43.54552,   10.50000,    0.00000
4001,   43.97853,   12.75000,    0.00000
4002,   42.24648,    5.75000,    0.00000
4003,   44.41154,   16.00000,    0.00000
4004,   41.25000,    3.03109,    0.00000
4005,   42.67949,    7.00000,    0.00000
4006,   44.41154,   15.50000,    0.00000
4007,   43.97853,   12.25000,    0.00000
4008,   41.50000,    3.46410,    0.00000
4009,   43.54552,   10.00000,    0.00000
4010,   43.11250,    8.25000,    0.00000
4011,   44.41154,   15.00000,    0.00000
4012,   40.00000,    0.00000,    0.00000
4013,   43.97853,   11.75000,    0.00000
4014,   41.75000,    3.89711,    0.00000
4015,   44.41154,   14.50000,    0.00000
4016,   40.25000,    0.43301,    0.00000
4017,   42.67949,    6.50000,    0.00000
4018,   40.50000,    0.86603,    0.00000
4019,   43.54552,    9.50000,    0.00000
4020,   44.41154,   14.00000,    0.00000
4021,   43.11250,    7.75000,    0.00000
4022,   42.00000,    4.33013,    0.00000
4023,   40.75000,    1.29904,    0.00000
4024,   43.97853,   11.25000,    0.00000
4025,   44.84456,   18.75000,    0.00000
4026,   44.87046,   19.29167,    0.00000
4027,   44.84456,   18.25000,    0.00000
4028,   44.41154,   13.50000,    0.00000
4029,   41.00000,    1.73205,    0.00000
4030,   44.84456,   17.75000,    0.00000
4031,   43.54552,    9.00000,    0.00000
4032,   42.67949,    6.00000,    0.00000
4033,   42.26550,    4.78932,    0.00000
4034,   44.84456,   17.25000,    0.00000
4035,   41.25000,    2.16506,    0.00000
4036,   43.97853,   10.75000,    0.00000
4037,   43.11250,    7.25000,    0.00000
4038,   44.41154,   13.00000,    0.00000
4039,   44.84456,   16.75000,    0.00000
4040,   45.00000,   20.00000,    0.00000
4041,   41.50000,    2.59808,    0.00000
4042,   44.84456,   16.25000,    0.00000
4043,   43.54552,    8.50000,    0.00000
4044,   44.41154,   12.50000,    0.00000
4045,   42.59300,    5.35320,    0.00000
4046,   44.84456,   15.75000,    0.00000
4047,   43.97853,   10.25000,    0.00000
4048,   41.75000,    3.03109,    0.00000
4049,   44.84456,   15.25000,    0.00000
4050,   43.11250,    6.75000,    0.00000
4051,   44.41154,   12.00000,    0.00000
4052,   42.00000,    3.46410,    0.00000
4053,   44.84456,   14.75000,    0.00000
4054,   43.97853,    9.75000,    0.00000
4055,   43.54552,    8.00000,    0.00000
4056,   40.50000,    0.00000,    0.00000
4057,   40.75000,    0.43301,    0.00000
4058,   44.84456,   14.25000,    0.00000
4059,   42.25000,    3.89711,    0.00000
4060,   44.41154,   11.50000,    0.00000
4061,   41.00000,    0.86603,    0.00000
4062,   43.11250,    6.25000,    0.00000
4063,   43.97853,    9.25000,    0.00000
4064,   45.27397,   19.53690,    0.00000
4065,   44.84456,   13.75000,    0.00000
4066,   45.27757,   19.00000,    0.00000
4067,   41.25000,    1.29904,    0.00000
4068,   42.50000,    4.33013,    0.00000
4069,   45.27757,   18.50000,    0.00000
4070,   43.54552,    7.50000,    0.00000
4071,   44.41154,   11.00000,    0.00000
4072,   45.27757,   18.00000,    0.00000
4073,   41.50000,    1.73205,    0.00000
4074,   45.27757,   17.50000,    0.00000
4075,   44.84456,   13.25000,    0.00000
4076,   45.27757,   17.00000,    0.00000
4077,   42.75000,    4.76314,    0.00000
4078,   43.97853,    8.75000,    0.00000
4079,   41.75000,    2.16506,    0.00000
4080,   43.11250,    5.75000,    0.00000
4081,   45.27757,   16.50000,    0.00000
4082,   44.41154,   10.50000,    0.00000
4083,   44.84456,   12.75000,    0.00000
4084,   43.54552,    7.00000,    0.00000
4085,   45.27757,   16.00000,    0.00000
4086,   42.00000,    2.59808,    0.00000
4087,   45.50000,   20.00000,    0.00000
4088,   45.27757,   15.50000,    0.00000
4089,   44.84456,   12.25000,    0.00000
4090,   43.97853,    8.25000,    0.00000
4091,   44.41154,   10.00000,    0.00000
4092,   42.25000,    3.03109,    0.00000
4093,   45.27757,   15.00000,    0.00000
4094,   43.11250,    5.25000,    0.00000
4095,   43.54552,    6.50000,    0.00000
4096,   44.84456,   11.75000,    0.00000
4097,   42.50000,    3.46410,    0.00000
4098,   45.27757,   14.50000,    0.00000
4099,   41.00000,    0.00000,    0.00000
4100,   44.41154,    9.50000,    0.00000
4101,   43.97853,    7.75000,    0.00000
4102,   41.25000,    0.43301,    0.00000
4103,   45.27757,   14.00000,    0.00000
4104,   42.75000,    3.89711,    0.00000
4105,   44.84456,   11.25000,    0.00000
4106,   41.50000,    0.86603,    0.00000
4107,   45.72184,   19.39286,    0.00000
4108,   45.71058,   18.75000,    0.00000
4109,   43.54552,    6.00000,    0.00000
4110,   45.27757,   13.50000,    0.00000
4111,   45.71058,   18.25000,    0.00000
4112,   41.75000,    1.29904,    0.00000
4113,   44.41154,    9.00000,    0.00000
4114,   45.71058,   17.75000,    0.00000
4115,   43.00000,    4.33013,    0.00000
4116,   44.84456,   10.75000,    0.00000
4117,   43.97853,    7.25000,    0.00000
4118,   45.71058,   17.25000,    0.00000
4119,   43.18160,    4.73468,    0.00000
4120,   42.00000,    1.73205,    0.00000
4121,   45.27757,   13.00000,    0.00000
4122,   45.71058,   16.75000,    0.00000
4123,   42.25000,    2.16506,    0.00000
4124,   45.71058,   16.25000,    0.00000
4125,   44.41154,    8.50000,    0.00000
4126,   44.84456,   10.25000,    0.00000
4127,   45.27757,   12.50000,    0.00000
4128,   43.54552,    5.50000,    0.00000
4129,   45.71058,   15.75000,    0.00000
4130,   42.50000,    2.59808,    0.00000
4131,   43.97853,    6.75000,    0.00000
4132,   45.71058,   15.25000,    0.00000
4133,   45.27757,   12.00000,    0.00000
4134,   42.75000,    3.03109,    0.00000
4135,   46.00000,   20.00000,    0.00000
4136,   44.84456,    9.75000,    0.00000
4137,   44.41154,    8.00000,    0.00000
4138,   45.71058,   14.75000,    0.00000
4139,   43.54552,    5.00000,    0.00000
4140,   41.50000,    0.00000,    0.00000
4141,   45.27757,   11.50000,    0.00000
4142,   43.00000,    3.46410,    0.00000
4143,   45.71058,   14.25000,    0.00000
4144,   43.97853,    6.25000,    0.00000
4145,   41.75000,    0.43301,    0.00000
4146,   44.84456,    9.25000,    0.00000
4147,   45.71058,   13.75000,    0.00000
4148,   44.41154,    7.50000,    0.00000
4149,   46.14359,   19.50000,    0.00000
4150,   43.25000,    3.89711,    0.00000
4151,   42.00000,    0.86603,    0.00000
4152,   46.14359,   19.00000,    0.00000
4153,   45.27757,   11.00000,    0.00000
4154,   46.14359,   18.50000,    0.00000
4155,   46.14359,   18.00000,    0.00000
4156,   42.25000,    1.29904,    0.00000
4157,   45.71058,   13.25000,    0.00000
4158,   46.14359,   17.50000,    0.00000
4159,   43.97853,    5.75000,    0.00000
4160,   44.84456,    8.75000,    0.00000
4161,   43.50000,    4.33013,    0.00000
4162,   46.14359,   17.00000,    0.00000
4163,   42.50000,    1.73205,    0.00000
4164,   45.27757,   10.50000,    0.00000
4165,   44.41154,    7.00000,    0.00000
4166,   46.14359,   16.50000,    0.00000
4167,   45.71058,   12.75000,    0.00000
4168,   46.14359,   16.00000,    0.00000
4169,   42.75000,    2.16506,    0.00000
4170,   44.84456,    8.25000,    0.00000
4171,   46.14359,   15.50000,    0.00000
4172,   45.71058,   12.25000,    0.00000
4173,   45.27757,   10.00000,    0.00000
4174,   43.97853,    5.25000,    0.00000
4175,   43.00000,    2.59808,    0.00000
4176,   46.14359,   15.00000,    0.00000
4177,   44.41154,    6.50000,    0.00000
4178,   45.71058,   11.75000,    0.00000
4179,   43.25000,    3.03109,    0.00000
4180,   46.14359,   14.50000,    0.00000
4181,   45.27757,    9.50000,    0.00000
4182,   44.84456,    7.75000,    0.00000
4183,   46.50000,   20.00000,    0.00000
4184,   42.00000,    0.00000,    0.00000
4185,   46.14359,   14.00000,    0.00000
4186,   43.50000,    3.46410,    0.00000
4187,   45.71058,   11.25000,    0.00000
4188,   43.97853,    4.75000,    0.00000
4189,   42.25000,    0.43301,    0.00000
4190,   44.41154,    6.00000,    0.00000
4191,   46.56384,   19.29167,    0.00000
4192,   46.57661,   18.75000,    0.00000
4193,   45.27757,    9.00000,    0.00000
4194,   46.14359,   13.50000,    0.00000
4195,   42.50000,    0.86603,    0.00000
4196,   46.57661,   18.25000,    0.00000
4197,   43.75000,    3.89711,    0.00000
4198,   44.84456,    7.25000,    0.00000
4199,   46.57661,   17.75000,    0.00000
4200,   45.71058,   10.75000,    0.00000
4201,   46.57661,   17.25000,    0.00000
4202,   42.75000,    1.29904,    0.00000
4203,   46.14359,   13.00000,    0.00000
4204,   46.57661,   16.75000,    0.00000
4205,   44.00000,    4.33013,    0.00000
4206,   45.27757,    8.50000,    0.00000
4207,   44.41154,    5.50000,    0.00000
4208,   43.00000,    1.73205,    0.00000
4209,   46.57661,   16.25000,    0.00000
4210,   45.71058,   10.25000,    0.00000
4211,   46.14359,   12.50000,    0.00000
4212,   44.84456,    6.75000,    0.00000
4213,   46.57661,   15.75000,    0.00000
4214,   43.25000,    2.16506,    0.00000
4215,   46.57661,   15.25000,    0.00000
4216,   46.14359,   12.00000,    0.00000
4217,   45.27757,    8.00000,    0.00000
4218,   45.71058,    9.75000,    0.00000
4219,   43.50000,    2.59808,    0.00000
4220,   46.57661,   14.75000,    0.00000
4221,   44.41154,    5.00000,    0.00000
4222,   44.84456,    6.25000,    0.00000
4223,   46.14359,   11.50000,    0.00000
4224,   43.75000,    3.03109,    0.00000
4225,   46.57661,   14.25000,    0.00000
4226,   45.71058,    9.25000,    0.00000
4227,   42.50000,    0.00000,    0.00000
4228,   45.27757,    7.50000,    0.00000
4229,   46.57661,   13.75000,    0.00000
4230,   47.00000,   20.00000,    0.00000
4231,   44.00000,    3.46410,    0.00000
4232,   47.00962,   19.50000,    0.00000
4233,   46.14359,   11.00000,    0.00000
4234,   42.75000,    0.43301,    0.00000
4235,   47.00962,   19.00000,    0.00000
4236,   47.00962,   18.50000,    0.00000
4237,   44.41154,    4.50000,    0.00000
4238,   47.00962,   18.00000,    0.00000
4239,   44.84456,    5.75000,    0.00000
4240,   46.57661,   13.25000,    0.00000
4241,   43.00000,    0.86603,    0.00000
4242,   45.71058,    8.75000,    0.00000
4243,   47.00962,   17.50000,    0.00000
4244,   44.25000,    3.89711,    0.00000
4245,   47.00962,   17.00000,    0.00000
4246,   45.27757,    7.00000,    0.00000
4247,   46.14359,   10.50000,    0.00000
4248,   43.25000,    1.29904,    0.00000
4249,   46.57661,   12.75000,    0.00000
4250,   47.00962,   16.50000,    0.00000
4251,   47.00962,   16.00000,    0.00000
4252,   43.50000,    1.73205,    0.00000
4253,   45.71058,    8.25000,    0.00000
4254,   44.84456,    5.25000,    0.00000
4255,   46.14359,   10.00000,    0.00000
4256,   46.57661,   12.25000,    0.00000
4257,   47.00962,   15.50000,    0.00000
4258,   43.75000,    2.16506,    0.00000
4259,   45.27757,    6.50000,    0.00000
4260,   47.00962,   15.00000,    0.00000
4261,   46.57661,   11.75000,    0.00000
4262,   44.00000,    2.59808,    0.00000
4263,   46.14359,    9.50000,    0.00000
4264,   45.71058,    7.75000,    0.00000
4265,   47.00962,   14.50000,    0.00000
4266,   44.84456,    4.75000,    0.00000
4267,   47.00962,   14.00000,    0.00000
4268,   46.57661,   11.25000,    0.00000
4269,   44.25000,    3.03109,    0.00000
4270,   45.27757,    6.00000,    0.00000
4271,   43.00000,    0.00000,    0.00000
4272,   46.14359,    9.00000,    0.00000
4273,   47.44263,   19.25000,    0.00000
4274,   45.71058,    7.25000,    0.00000
4275,   47.00962,   13.50000,    0.00000
4276,   47.44263,   18.75000,    0.00000
4277,   43.25000,    0.43301,    0.00000
4278,   44.50000,    3.46410,    0.00000
4279,   47.44263,   18.25000,    0.00000
4280,   46.57661,   10.75000,    0.00000
4281,   47.44263,   17.75000,    0.00000
4282,   47.50000,   20.00000,    0.00000
4283,   43.50000,    0.86603,    0.00000
4284,   47.44263,   17.25000,    0.00000
4285,   47.00962,   13.00000,    0.00000
4286,   44.84456,    4.25000,    0.00000
4287,   45.27757,    5.50000,    0.00000
4288,   47.44263,   16.75000,    0.00000
4289,   46.14359,    8.50000,    0.00000
4290,   43.75000,    1.29904,    0.00000
4291,   46.57661,   10.25000,    0.00000
4292,   47.44263,   16.25000,    0.00000
4293,   45.71058,    6.75000,    0.00000
4294,   47.00962,   12.50000,    0.00000
4295,   47.44263,   15.75000,    0.00000
4296,   44.00000,    1.73205,    0.00000
4297,   46.14359,    8.00000,    0.00000
4298,   47.44263,   15.25000,    0.00000
4299,   47.00962,   12.00000,    0.00000
4300,   46.57661,    9.75000,    0.00000
4301,   45.27757,    5.00000,    0.00000
4302,   44.84456,    3.75000,    0.00000
4303,   44.25000,    2.16506,    0.00000
4304,   47.44263,   14.75000,    0.00000
4305,   45.71058,    6.25000,    0.00000
4306,   47.00962,   11.50000,    0.00000
4307,   44.50000,    2.59808,    0.00000
4308,   47.44263,   14.25000,    0.00000
4309,   46.57661,    9.25000,    0.00000
4310,   46.14359,    7.50000,    0.00000
4311,   47.44263,   13.75000,    0.00000
4312,   45.27757,    4.50000,    0.00000
4313,   47.00962,   11.00000,    0.00000
4314,   44.80316,    3.13892,    0.00000
4315,   43.50000,    0.00000,    0.00000
4316,   47.87564,   19.50000,    0.00000
4317,   45.71058,    5.75000,    0.00000
4318,   47.87564,   19.00000,    0.00000
4319,   47.87564,   18.50000,    0.00000
4320,   46.57661,    8.75000,    0.00000
4321,   47.87564,   18.00000,    0.00000
4322,   47.44263,   13.25000,    0.00000
4323,   43.75000,    0.43301,    0.00000
4324,   46.14359,    7.00000,    0.00000
4325,   47.87564,   17.50000,    0.00000
4326,   47.00962,   10.50000,    0.00000
4327,   47.87564,   17.00000,    0.00000
4328,   44.00000,    0.86603,    0.00000
4329,   47.44263,   12.75000,    0.00000
4330,   48.00000,   20.00000,    0.00000
4331,   47.87564,   16.50000,    0.00000
4332,   45.27757,    4.00000,    0.00000
4333,   45.71058,    5.25000,    0.00000
4334,   46.57661,    8.25000,    0.00000
4335,   44.25000,    1.29904,    0.00000
4336,   47.87564,   16.00000,    0.00000
4337,   47.00962,   10.00000,    0.00000
4338,   47.44263,   12.25000,    0.00000
4339,   46.14359,    6.50000,    0.00000
4340,   47.87564,   15.50000,    0.00000
4341,   44.50000,    1.73205,    0.00000
4342,   47.87564,   15.00000,    0.00000
4343,   47.44263,   11.75000,    0.00000
4344,   46.57661,    7.75000,    0.00000
4345,   47.00962,    9.50000,    0.00000
4346,   44.75000,    2.16506,    0.00000
4347,   45.71058,    4.75000,    0.00000
4348,   45.27757,    3.50000,    0.00000
4349,   47.87564,   14.50000,    0.00000
4350,   46.14359,    6.00000,    0.00000
4351,   47.44263,   11.25000,    0.00000
4352,   45.00000,    2.59808,    0.00000
4353,   47.87564,   14.00000,    0.00000
4354,   47.00962,    9.00000,    0.00000
4355,   46.57661,    7.25000,    0.00000
4356,   47.87564,   13.50000,    0.00000
4357,   48.30866,   18.75000,    0.00000
4358,   45.25000,    3.03109,    0.00000
4359,   44.00000,    0.00000,    0.00000
4360,   47.44263,   10.75000,    0.00000
4361,   48.30866,   18.25000,    0.00000
4362,   48.34055,   19.29167,    0.00000
4363,   45.71058,    4.25000,    0.00000
4364,   48.30866,   17.75000,    0.00000
4365,   46.14359,    5.50000,    0.00000
4366,   44.25000,    0.43301,    0.00000
4367,   47.87564,   13.00000,    0.00000
4368,   48.30866,   17.25000,    0.00000
4369,   47.00962,    8.50000,    0.00000
4370,   48.30866,   16.75000,    0.00000
4371,   46.57661,    6.75000,    0.00000
4372,   47.44263,   10.25000,    0.00000
4373,   44.50000,    0.86603,    0.00000
4374,   48.30866,   16.25000,    0.00000
4375,   47.87564,   12.50000,    0.00000
4376,   48.30866,   15.75000,    0.00000
4377,   48.50000,   20.00000,    0.00000
4378,   44.75000,    1.29904,    0.00000
4379,   45.71058,    3.75000,    0.00000
4380,   47.00962,    8.00000,    0.00000
4381,   46.14359,    5.00000,    0.00000
4382,   47.44263,    9.75000,    0.00000
4383,   47.87564,   12.00000,    0.00000
4384,   48.30866,   15.25000,    0.00000
4385,   46.57661,    6.25000,    0.00000
4386,   45.00000,    1.73205,    0.00000
4387,   48.30866,   14.75000,    0.00000
4388,   47.87564,   11.50000,    0.00000
4389,   45.25000,    2.16506,    0.00000
4390,   47.00962,    7.50000,    0.00000
4391,   47.44263,    9.25000,    0.00000
4392,   48.30866,   14.25000,    0.00000
4393,   46.14359,    4.50000,    0.00000
4394,   45.71058,    3.25000,    0.00000
4395,   46.57661,    5.75000,    0.00000
4396,   48.30866,   13.75000,    0.00000
4397,   45.50000,    2.59808,    0.00000
4398,   47.87564,   11.00000,    0.00000
4399,   48.74167,   19.50000,    0.00000
4400,   48.74167,   19.00000,    0.00000
4401,   47.44263,    8.75000,    0.00000
4402,   48.74167,   18.50000,    0.00000
4403,   47.00962,    7.00000,    0.00000
4404,   48.30866,   13.25000,    0.00000
4405,   48.74167,   18.00000,    0.00000
4406,   44.50000,    0.00000,    0.00000
4407,   48.74167,   17.50000,    0.00000
4408,   47.87564,   10.50000,    0.00000
4409,   48.74167,   17.00000,    0.00000
4410,   46.14359,    4.00000,    0.00000
4411,   44.75000,    0.43301,    0.00000
4412,   48.30866,   12.75000,    0.00000
4413,   46.57661,    5.25000,    0.00000
4414,   48.74167,   16.50000,    0.00000
4415,   47.44263,    8.25000,    0.00000
4416,   45.00000,    0.86603,    0.00000
4417,   48.74167,   16.00000,    0.00000
4418,   47.87564,   10.00000,    0.00000
4419,   47.00962,    6.50000,    0.00000
4420,   48.30866,   12.25000,    0.00000
4421,   48.74167,   15.50000,    0.00000
4422,   45.25000,    1.29904,    0.00000
4423,   48.74167,   15.00000,    0.00000
4424,   47.44263,    7.75000,    0.00000
4425,   49.00000,   20.00000,    0.00000
4426,   48.30866,   11.75000,    0.00000
4427,   46.57661,    4.75000,    0.00000
4428,   47.87564,    9.50000,    0.00000
4429,   45.50000,    1.73205,    0.00000
4430,   46.17784,    3.48752,    0.00000
4431,   47.00962,    6.00000,    0.00000
4432,   48.74167,   14.50000,    0.00000
4433,   48.30866,   11.25000,    0.00000
4434,   45.75000,    2.16506,    0.00000
4435,   48.74167,   14.00000,    0.00000
4436,   47.87564,    9.00000,    0.00000
4437,   47.44263,    7.25000,    0.00000
4438,   49.14557,   19.29167,    0.00000
4439,   46.57661,    4.25000,    0.00000
4440,   48.74167,   13.50000,    0.00000
4441,   46.00000,    2.59808,    0.00000
4442,   48.30866,   10.75000,    0.00000
4443,   49.17468,   18.75000,    0.00000
4444,   47.00962,    5.50000,    0.00000
4445,   49.17468,   18.25000,    0.00000
4446,   49.17468,   17.75000,    0.00000
4447,   47.87564,    8.50000,    0.00000
4448,   48.74167,   13.00000,    0.00000
4449,   45.00000,    0.00000,    0.00000
4450,   49.17468,   17.25000,    0.00000
4451,   47.44263,    6.75000,    0.00000
4452,   46.25000,    3.03109,    0.00000
4453,   49.17468,   16.75000,    0.00000
4454,   48.30866,   10.25000,    0.00000
4455,   45.25000,    0.43301,    0.00000
4456,   48.74167,   12.50000,    0.00000
4457,   49.17468,   16.25000,    0.00000
4458,   46.57661,    3.75000,    0.00000
4459,   47.00962,    5.00000,    0.00000
4460,   47.87564,    8.00000,    0.00000
4461,   49.17468,   15.75000,    0.00000
4462,   45.50000,    0.86603,    0.00000
4463,   48.30866,    9.75000,    0.00000
4464,   48.74167,   12.00000,    0.00000
4465,   47.44263,    6.25000,    0.00000
4466,   49.17468,   15.25000,    0.00000
4467,   45.75000,    1.29904,    0.00000
4468,   49.17468,   14.75000,    0.00000
4469,   48.74167,   11.50000,    0.00000
4470,   47.87564,    7.50000,    0.00000
4471,   48.30866,    9.25000,    0.00000
4472,   46.00000,    1.73205,    0.00000
4473,   47.00962,    4.50000,    0.00000
4474,   49.50000,   20.00000,    0.00000
4475,   49.17468,   14.25000,    0.00000
4476,   47.44263,    5.75000,    0.00000
4477,   48.74167,   11.00000,    0.00000
4478,   46.25000,    2.16506,    0.00000
4479,   49.17468,   13.75000,    0.00000
4480,   48.30866,    8.75000,    0.00000
4481,   47.87564,    7.00000,    0.00000
4482,   49.60770,   19.50000,    0.00000
4483,   49.60770,   19.00000,    0.00000
4484,   46.67569,    3.14405,    0.00000
4485,   49.60770,   18.50000,    0.00000
4486,   49.17468,   13.25000,    0.00000
4487,   49.60770,   18.00000,    0.00000
4488,   46.50000,    2.59808,    0.00000
4489,   47.00962,    4.00000,    0.00000
4490,   48.74167,   10.50000,    0.00000
4491,   49.60770,   17.50000,    0.00000
4492,   47.44263,    5.25000,    0.00000
4493,   49.60770,   17.00000,    0.00000
4494,   45.50000,    0.00000,    0.00000
4495,   49.17468,   12.75000,    0.00000
4496,   48.30866,    8.25000,    0.00000
4497,   49.60770,   16.50000,    0.00000
4498,   47.87564,    6.50000,    0.00000
4499,   48.74167,   10.00000,    0.00000
4500,   45.75000,    0.43301,    0.00000
4501,   49.60770,   16.00000,    0.00000
4502,   49.17468,   12.25000,    0.00000
4503,   49.60770,   15.50000,    0.00000
4504,   46.00000,    0.86603,    0.00000
4505,   47.00962,    3.50000,    0.00000
4506,   47.44263,    4.75000,    0.00000
4507,   48.30866,    7.75000,    0.00000
4508,   49.60770,   15.00000,    0.00000
4509,   48.74167,    9.50000,    0.00000
4510,   49.17468,   11.75000,    0.00000
4511,   47.87564,    6.00000,    0.00000
4512,   46.25000,    1.29904,    0.00000
4513,   49.60770,   14.50000,    0.00000
4514,   49.17468,   11.25000,    0.00000
4515,   46.50000,    1.73205,    0.00000
4516,   48.30866,    7.25000,    0.00000
4517,   48.74167,    9.00000,    0.00000
4518,   49.60770,   14.00000,    0.00000
4519,   47.44263,    4.25000,    0.00000
4520,   50.00000,   20.00000,    0.00000
4521,   49.99596,   19.16340,    0.00000
4522,   47.87564,    5.50000,    0.00000
4523,   49.60770,   13.50000,    0.00000
4524,   46.75000,    2.16506,    0.00000
4525,   49.17468,   10.75000,    0.00000
4526,   50.04071,   18.75000,    0.00000
4527,   50.04071,   18.25000,    0.00000
4528,   48.74167,    8.50000,    0.00000
4529,   50.04071,   17.75000,    0.00000
4530,   48.30866,    6.75000,    0.00000
4531,   49.60770,   13.00000,    0.00000
4532,   50.04071,   17.25000,    0.00000
4533,   47.00000,    2.59808,    0.00000
4534,   49.17468,   10.25000,    0.00000
4535,   50.04071,   16.75000,    0.00000
4536,   47.44263,    3.75000,    0.00000
4537,   46.00000,    0.00000,    0.00000
4538,   47.87564,    5.00000,    0.00000
4539,   49.60770,   12.50000,    0.00000
4540,   50.04071,   16.25000,    0.00000
4541,   48.74167,    8.00000,    0.00000
4542,   50.21546,   19.55964,    0.00000
4543,   46.25000,    0.43301,    0.00000
4544,   50.04071,   15.75000,    0.00000
4545,   48.30866,    6.25000,    0.00000
4546,   49.17468,    9.75000,    0.00000
4547,   47.33278,    3.16442,    0.00000
4548,   49.60770,   12.00000,    0.00000
4549,   50.04071,   15.25000,    0.00000
4550,   46.50000,    0.86603,    0.00000
4551,   50.04071,   14.75000,    0.00000
4552,   48.74167,    7.50000,    0.00000
4553,   47.87564,    4.50000,    0.00000
4554,   49.60770,   11.50000,    0.00000
4555,   49.17468,    9.25000,    0.00000
4556,   46.75000,    1.29904,    0.00000
4557,   48.30866,    5.75000,    0.00000
4558,   50.04071,   14.25000,    0.00000
4559,   49.60770,   11.00000,    0.00000
4560,   47.00000,    1.73205,    0.00000
4561,   50.04071,   13.75000,    0.00000
4562,   49.17468,    8.75000,    0.00000
4563,   48.74167,    7.00000,    0.00000
4564,   50.43910,   19.12748,    0.00000
4565,   47.87564,    4.00000,    0.00000
4566,   47.25397,    2.20407,    0.00000
4567,   50.04071,   13.25000,    0.00000
4568,   50.50000,   20.00000,    0.00000
4569,   49.60770,   10.50000,    0.00000
4570,   48.30866,    5.25000,    0.00000
4571,   50.47372,   18.00000,    0.00000
4572,   47.45026,    2.65885,    0.00000
4573,   50.47372,   17.50000,    0.00000
4574,   49.17468,    8.25000,    0.00000
4575,   50.47372,   17.00000,    0.00000
4576,   50.04071,   12.75000,    0.00000
4577,   48.74167,    6.50000,    0.00000
4578,   50.47372,   16.50000,    0.00000
4579,   49.60770,   10.00000,    0.00000
4580,   50.59794,   18.58356,    0.00000
4581,   46.50000,    0.00000,    0.00000
4582,   50.47372,   16.00000,    0.00000
4583,   50.04071,   12.25000,    0.00000
4584,   47.87564,    3.50000,    0.00000
4585,   48.30866,    4.75000,    0.00000
4586,   50.47372,   15.50000,    0.00000
4587,   49.17468,    7.75000,    0.00000
4588,   46.75000,    0.43301,    0.00000
4589,   49.60770,    9.50000,    0.00000
4590,   48.74167,    6.00000,    0.00000
4591,   50.04071,   11.75000,    0.00000
4592,   50.47372,   15.00000,    0.00000
4593,   47.00000,    0.86603,    0.00000
4594,   50.75000,   19.56699,    0.00000
4595,   50.47372,   14.50000,    0.00000
4596,   47.84993,    2.94360,    0.00000
4597,   50.04071,   11.25000,    0.00000
4598,   49.17468,    7.25000,    0.00000
4599,   48.30866,    4.25000,    0.00000
4600,   49.60770,    9.00000,    0.00000
4601,   47.25000,    1.29904,    0.00000
4602,   50.47372,   14.00000,    0.00000
4603,   48.74167,    5.50000,    0.00000
4604,   50.04071,   10.75000,    0.00000
4605,   50.47372,   13.50000,    0.00000
4606,   47.50000,    1.73205,    0.00000
4607,   49.60770,    8.50000,    0.00000
4608,   49.17468,    6.75000,    0.00000
4609,   50.90673,   18.25000,    0.00000
4610,   50.90673,   17.75000,    0.00000
4611,   50.47372,   13.00000,    0.00000
4612,   48.30866,    3.75000,    0.00000
4613,   47.82358,    2.33836,    0.00000
4614,   50.90673,   17.25000,    0.00000
4615,   50.04071,   10.25000,    0.00000
4616,   48.74167,    5.00000,    0.00000
4617,   51.00000,   20.00000,    0.00000
4618,   51.00000,   19.13397,    0.00000
4619,   50.90673,   16.75000,    0.00000
4620,   50.47372,   12.50000,    0.00000
4621,   49.60770,    8.00000,    0.00000
4622,   50.90673,   16.25000,    0.00000
4623,   49.17468,    6.25000,    0.00000
4624,   47.00000,    0.00000,    0.00000
4625,   50.04071,    9.75000,    0.00000
4626,   50.90673,   15.75000,    0.00000
4627,   50.47372,   12.00000,    0.00000
4628,   50.90673,   15.25000,    0.00000
4629,   48.30866,    3.25000,    0.00000
4630,   47.25000,    0.43301,    0.00000
4631,   48.74167,    4.50000,    0.00000
4632,   49.60770,    7.50000,    0.00000
4633,   50.90673,   14.75000,    0.00000
4634,   50.04071,    9.25000,    0.00000
4635,   50.47372,   11.50000,    0.00000
4636,   49.17468,    5.75000,    0.00000
4637,   47.50000,    0.86603,    0.00000
4638,   50.90673,   14.25000,    0.00000
4639,   51.25000,   19.56699,    0.00000
4640,   50.47372,   11.00000,    0.00000
4641,   47.75000,    1.29904,    0.00000
4642,   49.60770,    7.00000,    0.00000
4643,   51.26674,   18.57892,    0.00000
4644,   50.90673,   13.75000,    0.00000
4645,   50.04071,    8.75000,    0.00000
4646,   48.30866,    2.75000,    0.00000
4647,   48.74167,    4.00000,    0.00000
4648,   49.17468,    5.25000,    0.00000
4649,   50.90673,   13.25000,    0.00000
4650,   50.47372,   10.50000,    0.00000
4651,   51.33975,   18.00000,    0.00000
4652,   48.07186,    1.81255,    0.00000
4653,   51.33975,   17.50000,    0.00000
4654,   50.04071,    8.25000,    0.00000
4655,   49.60770,    6.50000,    0.00000
4656,   50.90673,   12.75000,    0.00000
4657,   51.33975,   17.00000,    0.00000
4658,   50.47372,   10.00000,    0.00000
4659,   48.74167,    3.50000,    0.00000
4660,   51.33975,   16.50000,    0.00000
4661,   48.30866,    2.25000,    0.00000
4662,   49.17468,    4.75000,    0.00000
4663,   50.90673,   12.25000,    0.00000
4664,   51.33975,   16.00000,    0.00000
4665,   51.50000,   20.00000,    0.00000
4666,   51.50000,   19.13397,    0.00000
4667,   50.04071,    7.75000,    0.00000
4668,   51.33975,   15.50000,    0.00000
4669,   47.50000,    0.00000,    0.00000
4670,   49.60770,    6.00000,    0.00000
4671,   50.47372,    9.50000,    0.00000
4672,   50.90673,   11.75000,    0.00000
4673,   51.33975,   15.00000,    0.00000
4674,   47.75000,    0.43301,    0.00000
4675,   48.74167,    3.00000,    0.00000
4676,   51.33975,   14.50000,    0.00000
4677,   49.17468,    4.25000,    0.00000
4678,   50.04071,    7.25000,    0.00000
4679,   50.90673,   11.25000,    0.00000
4680,   50.47372,    9.00000,    0.00000
4681,   48.00000,    0.86603,    0.00000
4682,   49.60770,    5.50000,    0.00000
4683,   51.33975,   14.00000,    0.00000
4684,   50.90673,   10.75000,    0.00000
4685,   48.25000,    1.29904,    0.00000
4686,   51.33975,   13.50000,    0.00000
4687,   51.75000,   19.56699,    0.00000
4688,   50.04071,    6.75000,    0.00000
4689,   51.75000,   18.70096,    0.00000
4690,   50.47372,    8.50000,    0.00000
4691,   48.74167,    2.50000,    0.00000
4692,   49.17468,    3.75000,    0.00000
4693,   51.77276,   18.25000,    0.00000
4694,   51.33975,   13.00000,    0.00000
4695,   51.77276,   17.75000,    0.00000
4696,   49.60770,    5.00000,    0.00000
4697,   50.90673,   10.25000,    0.00000
4698,   51.77276,   17.25000,    0.00000
4699,   51.77276,   16.75000,    0.00000
4700,   50.47372,    8.00000,    0.00000
4701,   51.33975,   12.50000,    0.00000
4702,   50.04071,    6.25000,    0.00000
4703,   51.77276,   16.25000,    0.00000
4704,   50.90673,    9.75000,    0.00000
4705,   51.77276,   15.75000,    0.00000
4706,   49.17468,    3.25000,    0.00000
4707,   51.33975,   12.00000,    0.00000
4708,   49.60770,    4.50000,    0.00000
4709,   51.77276,   15.25000,    0.00000
4710,   50.47372,    7.50000,    0.00000
4711,   52.00000,   20.00000,    0.00000
4712,   48.00000,    0.00000,    0.00000
4713,   52.00000,   19.13397,    0.00000
4714,   50.90673,    9.25000,    0.00000
4715,   50.04071,    5.75000,    0.00000
4716,   48.74995,    1.81561,    0.00000
4717,   51.77276,   14.75000,    0.00000
4718,   51.33975,   11.50000,    0.00000
4719,   48.25000,    0.43301,    0.00000
4720,   51.77276,   14.25000,    0.00000
4721,   49.17468,    2.75000,    0.00000
4722,   50.47372,    7.00000,    0.00000
4723,   51.33975,   11.00000,    0.00000
4724,   49.60770,    4.00000,    0.00000
4725,   50.90673,    8.75000,    0.00000
4726,   48.50000,    0.86603,    0.00000
4727,   51.77276,   13.75000,    0.00000
4728,   50.04071,    5.25000,    0.00000
4729,   51.77276,   13.25000,    0.00000
4730,   51.33975,   10.50000,    0.00000
4731,   52.20577,   18.50000,    0.00000
4732,   48.74094,    1.22716,    0.00000
4733,   52.20577,   18.00000,    0.00000
4734,   50.90673,    8.25000,    0.00000
4735,   50.47372,    6.50000,    0.00000
4736,   52.25000,   19.56699,    0.00000
4737,   52.20577,   17.50000,    0.00000
4738,   51.77276,   12.75000,    0.00000
4739,   49.60770,    3.50000,    0.00000
4740,   49.17468,    2.25000,    0.00000
4741,   52.20577,   17.00000,    0.00000
4742,   51.33975,   10.00000,    0.00000
4743,   50.04071,    4.75000,    0.00000
4744,   52.20577,   16.50000,    0.00000
4745,   51.77276,   12.25000,    0.00000
4746,   52.20577,   16.00000,    0.00000
4747,   50.90673,    7.75000,    0.00000
4748,   50.47372,    6.00000,    0.00000
4749,   52.20577,   15.50000,    0.00000
4750,   51.33975,    9.50000,    0.00000
4751,   51.77276,   11.75000,    0.00000
4752,   49.60770,    3.00000,    0.00000
4753,   52.20577,   15.00000,    0.00000
4754,   50.04071,    4.25000,    0.00000
4755,   48.50000,    0.00000,    0.00000
4756,   50.90673,    7.25000,    0.00000
4757,   52.20577,   14.50000,    0.00000
4758,   52.50000,   20.00000,    0.00000
4759,   51.33975,    9.00000,    0.00000
4760,   51.77276,   11.25000,    0.00000
4761,   52.50000,   19.13397,    0.00000
4762,   50.47372,    5.50000,    0.00000
4763,   48.75000,    0.43301,    0.00000
4764,   52.20577,   14.00000,    0.00000
4765,   51.77276,   10.75000,    0.00000
4766,   50.90673,    6.75000,    0.00000
4767,   49.00000,    0.86603,    0.00000
4768,   49.60770,    2.50000,    0.00000
4769,   52.20577,   13.50000,    0.00000
4770,   51.33975,    8.50000,    0.00000
4771,   50.04071,    3.75000,    0.00000
4772,   49.20781,    1.30955,    0.00000
4773,   50.47372,    5.00000,    0.00000
4774,   52.63878,   18.25000,    0.00000
4775,   52.20577,   13.00000,    0.00000
4776,   51.77276,   10.25000,    0.00000
4777,   52.63878,   17.75000,    0.00000
4778,   52.63878,   17.25000,    0.00000
4779,   52.69763,   18.67679,    0.00000
4780,   49.50397,    1.87654,    0.00000
4781,   51.33975,    8.00000,    0.00000
4782,   50.90673,    6.25000,    0.00000
4783,   52.63878,   16.75000,    0.00000
4784,   52.20577,   12.50000,    0.00000
4785,   52.75000,   19.56699,    0.00000
4786,   50.04071,    3.25000,    0.00000
4787,   52.63878,   16.25000,    0.00000
4788,   51.77276,    9.75000,    0.00000
4789,   50.47372,    4.50000,    0.00000
4790,   52.63878,   15.75000,    0.00000
4791,   52.20577,   12.00000,    0.00000
4792,   51.33975,    7.50000,    0.00000
4793,   52.63878,   15.25000,    0.00000
4794,   50.90673,    5.75000,    0.00000
4795,   51.77276,    9.25000,    0.00000
4796,   52.20577,   11.50000,    0.00000
4797,   52.63878,   14.75000,    0.00000
4798,   49.00000,    0.00000,    0.00000
4799,   50.04071,    2.75000,    0.00000
4800,   50.47372,    4.00000,    0.00000
4801,   52.63878,   14.25000,    0.00000
4802,   51.33975,    7.00000,    0.00000
4803,   52.20577,   11.00000,    0.00000
4804,   51.77276,    8.75000,    0.00000
4805,   49.25000,    0.43301,    0.00000
4806,   53.00000,   20.00000,    0.00000
4807,   50.90673,    5.25000,    0.00000
4808,   52.63878,   13.75000,    0.00000
4809,   52.20577,   10.50000,    0.00000
4810,   49.50000,    0.86603,    0.00000
4811,   52.63878,   13.25000,    0.00000
4812,   53.07180,   19.00000,    0.00000
4813,   51.33975,    6.50000,    0.00000
4814,   51.77276,    8.25000,    0.00000
4815,   53.07180,   18.50000,    0.00000
4816,   50.04071,    2.25000,    0.00000
4817,   50.47372,    3.50000,    0.00000
4818,   53.07180,   18.00000,    0.00000
4819,   53.07180,   17.50000,    0.00000
4820,   52.63878,   12.75000,    0.00000
4821,   50.90673,    4.75000,    0.00000
4822,   49.75000,    1.29904,    0.00000
4823,   52.20577,   10.00000,    0.00000
4824,   53.07180,   17.00000,    0.00000
4825,   53.07180,   16.50000,    0.00000
4826,   51.77276,    7.75000,    0.00000
4827,   52.63878,   12.25000,    0.00000
4828,   51.33975,    6.00000,    0.00000
4829,   53.07180,   16.00000,    0.00000
4830,   50.00000,    1.73205,    0.00000
4831,   52.20577,    9.50000,    0.00000
4832,   53.25000,   19.56699,    0.00000
4833,   50.47372,    3.00000,    0.00000
4834,   53.07180,   15.50000,    0.00000
4835,   52.63878,   11.75000,    0.00000
4836,   50.90673,    4.25000,    0.00000
4837,   53.07180,   15.00000,    0.00000
4838,   51.77276,    7.25000,    0.00000
4839,   51.33975,    5.50000,    0.00000
4840,   52.20577,    9.00000,    0.00000
4841,   53.07180,   14.50000,    0.00000
4842,   52.63878,   11.25000,    0.00000
4843,   49.50000,    0.00000,    0.00000
4844,   50.46738,    2.55779,    0.00000
4845,   53.07180,   14.00000,    0.00000
4846,   50.90673,    3.75000,    0.00000
4847,   51.77276,    6.75000,    0.00000
4848,   52.63878,   10.75000,    0.00000
4849,   52.20577,    8.50000,    0.00000
4850,   49.75000,    0.43301,    0.00000
4851,   53.07180,   13.50000,    0.00000
4852,   51.33975,    5.00000,    0.00000
4853,   53.50000,   20.00000,    0.00000
4854,   53.50481,   18.75000,    0.00000
4855,   53.07180,   13.00000,    0.00000
4856,   53.50481,   18.25000,    0.00000
4857,   52.63878,   10.25000,    0.00000
4858,   50.00000,    0.86603,    0.00000
4859,   53.54045,   19.16340,    0.00000
4860,   53.50481,   17.75000,    0.00000
4861,   52.20577,    8.00000,    0.00000
4862,   51.77276,    6.25000,    0.00000
4863,   53.50481,   17.25000,    0.00000
4864,   50.90673,    3.25000,    0.00000
4865,   53.07180,   12.50000,    0.00000
4866,   53.50481,   16.75000,    0.00000
4867,   50.25000,    1.29904,    0.00000
4868,   52.63878,    9.75000,    0.00000
4869,   51.33975,    4.50000,    0.00000
4870,   53.50481,   16.25000,    0.00000
4871,   53.07180,   12.00000,    0.00000
4872,   53.50481,   15.75000,    0.00000
4873,   52.20577,    7.50000,    0.00000
4874,   51.77276,    5.75000,    0.00000
4875,   50.50000,    1.73205,    0.00000
4876,   53.50481,   15.25000,    0.00000
4877,   52.63878,    9.25000,    0.00000
4878,   53.07180,   11.50000,    0.00000
4879,   53.50481,   14.75000,    0.00000
4880,   51.33975,    4.00000,    0.00000
4881,   50.75000,    2.16506,    0.00000
4882,   52.20577,    7.00000,    0.00000
4883,   53.50481,   14.25000,    0.00000
4884,   52.63878,    8.75000,    0.00000
4885,   53.07180,   11.00000,    0.00000
4886,   51.77276,    5.25000,    0.00000
4887,   50.00000,    0.00000,    0.00000
4888,   53.50481,   13.75000,    0.00000
4889,   51.03177,    2.62388,    0.00000
4890,   53.07180,   10.50000,    0.00000
4891,   52.20577,    6.50000,    0.00000
4892,   50.25000,    0.43301,    0.00000
4893,   51.33975,    3.50000,    0.00000
4894,   53.50481,   13.25000,    0.00000
4895,   52.63878,    8.25000,    0.00000
4896,   53.93782,   19.50000,    0.00000
4897,   53.93782,   19.00000,    0.00000
4898,   53.93782,   18.50000,    0.00000
4899,   51.77276,    4.75000,    0.00000
4900,   53.93782,   18.00000,    0.00000
4901,   53.50481,   12.75000,    0.00000
4902,   53.93782,   17.50000,    0.00000
4903,   54.00000,   20.00000,    0.00000
4904,   50.50000,    0.86603,    0.00000
4905,   53.07180,   10.00000,    0.00000
4906,   53.93782,   17.00000,    0.00000
4907,   52.63878,    7.75000,    0.00000
4908,   52.20577,    6.00000,    0.00000
4909,   53.93782,   16.50000,    0.00000
4910,   53.50481,   12.25000,    0.00000
4911,   51.33975,    3.00000,    0.00000
4912,   50.75000,    1.29904,    0.00000
4913,   53.93782,   16.00000,    0.00000
4914,   53.07180,    9.50000,    0.00000
4915,   51.77276,    4.25000,    0.00000
4916,   53.93782,   15.50000,    0.00000
4917,   53.50481,   11.75000,    0.00000
4918,   52.63878,    7.25000,    0.00000
4919,   53.93782,   15.00000,    0.00000
4920,   51.00000,    1.73205,    0.00000
4921,   52.20577,    5.50000,    0.00000
4922,   53.07180,    9.00000,    0.00000
4923,   53.50481,   11.25000,    0.00000
4924,   53.93782,   14.50000,    0.00000
4925,   51.77276,    3.75000,    0.00000
4926,   51.25000,    2.16506,    0.00000
4927,   53.93782,   14.00000,    0.00000
4928,   52.63878,    6.75000,    0.00000
4929,   53.50481,   10.75000,    0.00000
4930,   53.07180,    8.50000,    0.00000
4931,   50.50000,    0.00000,    0.00000
4932,   52.20577,    5.00000,    0.00000
4933,   53.93782,   13.50000,    0.00000
4934,   51.51705,    2.59525,    0.00000
4935,   54.37083,   18.75000,    0.00000
4936,   53.50481,   10.25000,    0.00000
4937,   53.93782,   13.00000,    0.00000
4938,   50.75000,    0.43301,    0.00000
4939,   54.39236,   19.29167,    0.00000
4940,   54.37083,   18.25000,    0.00000
4941,   52.63878,    6.25000,    0.00000
4942,   53.07180,    8.00000,    0.00000
4943,   54.37083,   17.75000,    0.00000
4944,   54.37083,   17.25000,    0.00000
4945,   51.76919,    3.12693,    0.00000
4946,   53.93782,   12.50000,    0.00000
4947,   52.20577,    4.50000,    0.00000
4948,   54.37083,   16.75000,    0.00000
4949,   51.00000,    0.86603,    0.00000
4950,   53.50481,    9.75000,    0.00000
4951,   54.50000,   20.00000,    0.00000
4952,   54.37083,   16.25000,    0.00000
4953,   53.07180,    7.50000,    0.00000
4954,   53.93782,   12.00000,    0.00000
4955,   52.63878,    5.75000,    0.00000
4956,   54.37083,   15.75000,    0.00000
4957,   51.25000,    1.29904,    0.00000
4958,   53.50481,    9.25000,    0.00000
4959,   54.37083,   15.25000,    0.00000
4960,   52.20577,    4.00000,    0.00000
4961,   53.93782,   11.50000,    0.00000
4962,   54.37083,   14.75000,    0.00000
4963,   53.07180,    7.00000,    0.00000
4964,   51.50000,    1.73205,    0.00000
4965,   52.63878,    5.25000,    0.00000
4966,   54.37083,   14.25000,    0.00000
4967,   53.50481,    8.75000,    0.00000
4968,   53.93782,   11.00000,    0.00000
4969,   54.37083,   13.75000,    0.00000
4970,   51.75000,    2.16506,    0.00000
4971,   52.20577,    3.50000,    0.00000
4972,   53.07180,    6.50000,    0.00000
4973,   53.93782,   10.50000,    0.00000
4974,   53.50481,    8.25000,    0.00000
4975,   51.00000,    0.00000,    0.00000
4976,   54.37083,   13.25000,    0.00000
4977,   54.78736,   19.53690,    0.00000
4978,   52.63878,    4.75000,    0.00000
4979,   54.80385,   19.00000,    0.00000
4980,   54.80385,   18.50000,    0.00000
4981,   51.99867,    2.60840,    0.00000
4982,   54.80385,   18.00000,    0.00000
4983,   54.37083,   12.75000,    0.00000
4984,   53.93782,   10.00000,    0.00000
4985,   51.25000,    0.43301,    0.00000
4986,   54.80385,   17.50000,    0.00000
4987,   54.80385,   17.00000,    0.00000
4988,   53.07180,    6.00000,    0.00000
4989,   53.50481,    7.75000,    0.00000
4990,   52.20577,    3.00000,    0.00000
4991,   54.80385,   16.50000,    0.00000
4992,   54.37083,   12.25000,    0.00000
4993,   51.50000,    0.86603,    0.00000
4994,   52.63878,    4.25000,    0.00000
4995,   54.80385,   16.00000,    0.00000
4996,   53.93782,    9.50000,    0.00000
4997,   54.80385,   15.50000,    0.00000
4998,   54.37083,   11.75000,    0.00000
4999,   55.00000,   20.00000,    0.00000
5000,   53.50481,    7.25000,    0.00000
5001,   53.07180,    5.50000,    0.00000
5002,   51.75000,    1.29904,    0.00000
5003,   54.80385,   15.00000,    0.00000
5004,   53.93782,    9.00000,    0.00000
5005,   54.37083,   11.25000,    0.00000
5006,   54.80385,   14.50000,    0.00000
5007,   52.63878,    3.75000,    0.00000
5008,   52.00000,    1.73205,    0.00000
5009,   53.50481,    6.75000,    0.00000
5010,   54.80385,   14.00000,    0.00000
5011,   53.93782,    8.50000,    0.00000
5012,   53.07180,    5.00000,    0.00000
5013,   54.37083,   10.75000,    0.00000
5014,   54.80385,   13.50000,    0.00000
5015,   52.25000,    2.16506,    0.00000
5016,   54.37083,   10.25000,    0.00000
5017,   52.63878,    3.25000,    0.00000
5018,   53.50481,    6.25000,    0.00000
5019,   55.24061,   19.39286,    0.00000
5020,   51.50000,    0.00000,    0.00000
5021,   54.80385,   13.00000,    0.00000
5022,   55.23686,   18.75000,    0.00000
5023,   53.93782,    8.00000,    0.00000
5024,   55.23686,   18.25000,    0.00000
5025,   55.23686,   17.75000,    0.00000
5026,   53.07180,    4.50000,    0.00000
5027,   55.23686,   17.25000,    0.00000
5028,   52.50000,    2.59808,    0.00000
5029,   54.80385,   12.50000,    0.00000
5030,   51.75000,    0.43301,    0.00000
5031,   54.37083,    9.75000,    0.00000
5032,   55.23686,   16.75000,    0.00000
5033,   55.23686,   16.25000,    0.00000
5034,   53.93782,    7.50000,    0.00000
5035,   53.50481,    5.75000,    0.00000
5036,   54.80385,   12.00000,    0.00000
5037,   55.23686,   15.75000,    0.00000
5038,   52.00000,    0.86603,    0.00000
5039,   54.37083,    9.25000,    0.00000
5040,   53.07180,    4.00000,    0.00000
5041,   55.23686,   15.25000,    0.00000
5042,   54.80385,   11.50000,    0.00000
5043,   53.93782,    7.00000,    0.00000
5044,   55.23686,   14.75000,    0.00000
5045,   52.25000,    1.29904,    0.00000
5046,   55.50000,   20.00000,    0.00000
5047,   53.50481,    5.25000,    0.00000
5048,   54.37083,    8.75000,    0.00000
5049,   55.23686,   14.25000,    0.00000
5050,   54.80385,   11.00000,    0.00000
5051,   53.07180,    3.50000,    0.00000
5052,   52.50000,    1.73205,    0.00000
5053,   55.23686,   13.75000,    0.00000
5054,   53.93782,    6.50000,    0.00000
5055,   54.80385,   10.50000,    0.00000
5056,   54.37083,    8.25000,    0.00000
5057,   53.50481,    4.75000,    0.00000
5058,   55.23686,   13.25000,    0.00000
5059,   55.66987,   19.50000,    0.00000
5060,   55.66987,   19.00000,    0.00000
5061,   52.75000,    2.16506,    0.00000
5062,   55.66987,   18.50000,    0.00000
5063,   55.66987,   18.00000,    0.00000
5064,   54.80385,   10.00000,    0.00000
5065,   55.23686,   12.75000,    0.00000
5066,   52.00000,    0.00000,    0.00000
5067,   53.93782,    6.00000,    0.00000
5068,   55.66987,   17.50000,    0.00000
5069,   54.37083,    7.75000,    0.00000
5070,   55.66987,   17.00000,    0.00000
5071,   53.50481,    4.25000,    0.00000
5072,   55.23686,   12.25000,    0.00000
5073,   55.66987,   16.50000,    0.00000
5074,   53.00000,    2.59808,    0.00000
5075,   52.25000,    0.43301,    0.00000
5076,   54.80385,    9.50000,    0.00000
5077,   55.66987,   16.00000,    0.00000
5078,   54.37083,    7.25000,    0.00000
5079,   55.23686,   11.75000,    0.00000
5080,   55.66987,   15.50000,    0.00000
5081,   53.93782,    5.50000,    0.00000
5082,   52.50000,    0.86603,    0.00000
5083,   53.25000,    3.03109,    0.00000
5084,   55.66987,   15.00000,    0.00000
5085,   54.80385,    9.00000,    0.00000
5086,   55.23686,   11.25000,    0.00000
5087,   55.66987,   14.50000,    0.00000
5088,   53.50344,    3.61603,    0.00000
5089,   54.37083,    6.75000,    0.00000
5090,   52.75000,    1.29904,    0.00000
5091,   53.93782,    5.00000,    0.00000
5092,   55.66987,   14.00000,    0.00000
5093,   54.80385,    8.50000,    0.00000
5094,   56.00000,   20.00000,    0.00000
5095,   55.23686,   10.75000,    0.00000
5096,   55.66987,   13.50000,    0.00000
5097,   53.00000,    1.73205,    0.00000
5098,   54.37083,    6.25000,    0.00000
5099,   56.08574,   19.29167,    0.00000
5100,   55.23686,   10.25000,    0.00000
5101,   54.80385,    8.00000,    0.00000
5102,   55.66987,   13.00000,    0.00000
5103,   56.10289,   18.75000,    0.00000
5104,   53.93782,    4.50000,    0.00000
5105,   56.10289,   18.25000,    0.00000
5106,   56.10289,   17.75000,    0.00000
5107,   53.25000,    2.16506,    0.00000
5108,   56.10289,   17.25000,    0.00000
5109,   55.66987,   12.50000,    0.00000
5110,   55.23686,    9.75000,    0.00000
5111,   52.50000,    0.00000,    0.00000
5112,   56.10289,   16.75000,    0.00000
5113,   54.37083,    5.75000,    0.00000
5114,   54.80385,    7.50000,    0.00000
5115,   56.10289,   16.25000,    0.00000
5116,   55.66987,   12.00000,    0.00000
5117,   53.50000,    2.59808,    0.00000
5118,   53.93782,    4.00000,    0.00000
5119,   52.75000,    0.43301,    0.00000
5120,   56.10289,   15.75000,    0.00000
5121,   55.23686,    9.25000,    0.00000
5122,   56.10289,   15.25000,    0.00000
5123,   55.66987,   11.50000,    0.00000
5124,   54.80385,    7.00000,    0.00000
5125,   54.37083,    5.25000,    0.00000
5126,   56.10289,   14.75000,    0.00000
5127,   53.00000,    0.86603,    0.00000
5128,   53.74884,    3.08122,    0.00000
5129,   55.23686,    8.75000,    0.00000
5130,   55.66987,   11.00000,    0.00000
5131,   56.10289,   14.25000,    0.00000
5132,   53.93782,    3.50000,    0.00000
5133,   53.25000,    1.29904,    0.00000
5134,   54.80385,    6.50000,    0.00000
5135,   56.10289,   13.75000,    0.00000
5136,   54.37083,    4.75000,    0.00000
5137,   55.23686,    8.25000,    0.00000
5138,   55.66987,   10.50000,    0.00000
5139,   56.50000,   20.00000,    0.00000
5140,   56.10289,   13.25000,    0.00000
5141,   53.50000,    1.73205,    0.00000
5142,   56.53590,   19.50000,    0.00000
5143,   56.53590,   19.00000,    0.00000
5144,   56.53590,   18.50000,    0.00000
5145,   55.66987,   10.00000,    0.00000
5146,   54.80385,    6.00000,    0.00000
5147,   56.10289,   12.75000,    0.00000
5148,   56.53590,   18.00000,    0.00000
5149,   55.23686,    7.75000,    0.00000
5150,   56.53590,   17.50000,    0.00000
5151,   54.37083,    4.25000,    0.00000
5152,   56.53590,   17.00000,    0.00000
5153,   53.75000,    2.16506,    0.00000
5154,   56.10289,   12.25000,    0.00000
5155,   56.53590,   16.50000,    0.00000
5156,   53.00000,    0.00000,    0.00000
5157,   55.66987,    9.50000,    0.00000
5158,   56.53590,   16.00000,    0.00000
5159,   55.23686,    7.25000,    0.00000
5160,   54.80385,    5.50000,    0.00000
5161,   56.10289,   11.75000,    0.00000
5162,   56.53590,   15.50000,    0.00000
5163,   53.25000,    0.43301,    0.00000
5164,   54.00000,    2.59808,    0.00000
5165,   55.66987,    9.00000,    0.00000
5166,   54.37083,    3.75000,    0.00000
5167,   56.53590,   15.00000,    0.00000
5168,   56.10289,   11.25000,    0.00000
5169,   56.53590,   14.50000,    0.00000
5170,   55.23686,    6.75000,    0.00000
5171,   53.50000,    0.86603,    0.00000
5172,   54.80385,    5.00000,    0.00000
5173,   55.66987,    8.50000,    0.00000
5174,   56.53590,   14.00000,    0.00000
5175,   54.30179,    3.14405,    0.00000
5176,   56.10289,   10.75000,    0.00000
5177,   56.53590,   13.50000,    0.00000
5178,   53.75000,    1.29904,    0.00000
5179,   55.23686,    6.25000,    0.00000
5180,   56.10289,   10.25000,    0.00000
5181,   55.66987,    8.00000,    0.00000
5182,   54.80385,    4.50000,    0.00000
5183,   56.53590,   13.00000,    0.00000
5184,   56.96891,   19.25000,    0.00000
5185,   56.96891,   18.75000,    0.00000
5186,   56.96891,   18.25000,    0.00000
5187,   57.00000,   20.00000,    0.00000
5188,   54.00000,    1.73205,    0.00000
5189,   56.96891,   17.75000,    0.00000
5190,   56.53590,   12.50000,    0.00000
5191,   56.10289,    9.75000,    0.00000
5192,   56.96891,   17.25000,    0.00000
5193,   55.23686,    5.75000,    0.00000
5194,   55.66987,    7.50000,    0.00000
5195,   56.96891,   16.75000,    0.00000
5196,   54.80385,    4.00000,    0.00000
5197,   56.96891,   16.25000,    0.00000
5198,   56.53590,   12.00000,    0.00000
5199,   54.25000,    2.16506,    0.00000
5200,   53.50000,    0.00000,    0.00000
5201,   56.10289,    9.25000,    0.00000
5202,   56.96891,   15.75000,    0.00000
5203,   56.96891,   15.25000,    0.00000
5204,   55.66987,    7.00000,    0.00000
5205,   56.53590,   11.50000,    0.00000
5206,   55.23686,    5.25000,    0.00000
5207,   53.75000,    0.43301,    0.00000
5208,   56.96891,   14.75000,    0.00000
5209,   54.50000,    2.59808,    0.00000
5210,   56.10289,    8.75000,    0.00000
5211,   54.80385,    3.50000,    0.00000
5212,   56.53590,   11.00000,    0.00000
5213,   56.96891,   14.25000,    0.00000
5214,   55.66987,    6.50000,    0.00000
5215,   54.00000,    0.86603,    0.00000
5216,   55.23686,    4.75000,    0.00000
5217,   56.96891,   13.75000,    0.00000
5218,   54.75000,    3.03109,    0.00000
5219,   56.10289,    8.25000,    0.00000
5220,   56.53590,   10.50000,    0.00000
5221,   56.96891,   13.25000,    0.00000
5222,   54.25000,    1.29904,    0.00000
5223,   55.66987,    6.00000,    0.00000
5224,   57.40192,   19.50000,    0.00000
5225,   57.40192,   19.00000,    0.00000
5226,   56.53590,   10.00000,    0.00000
5227,   57.40192,   18.50000,    0.00000
5228,   56.10289,    7.75000,    0.00000
5229,   56.96891,   12.75000,    0.00000
5230,   57.40192,   18.00000,    0.00000
5231,   55.23686,    4.25000,    0.00000
5232,   57.40192,   17.50000,    0.00000
5233,   54.50000,    1.73205,    0.00000
5234,   57.40192,   17.00000,    0.00000
5235,   56.96891,   12.25000,    0.00000
5236,   57.50000,   20.00000,    0.00000
5237,   56.53590,    9.50000,    0.00000
5238,   57.40192,   16.50000,    0.00000
5239,   55.66987,    5.50000,    0.00000
5240,   56.10289,    7.25000,    0.00000
5241,   57.40192,   16.00000,    0.00000
5242,   56.96891,   11.75000,    0.00000
5243,   55.23686,    3.75000,    0.00000
5244,   57.40192,   15.50000,    0.00000
5245,   54.75000,    2.16506,    0.00000
5246,   54.00000,    0.00000,    0.00000
5247,   56.53590,    9.00000,    0.00000
5248,   57.40192,   15.00000,    0.00000
5249,   56.96891,   11.25000,    0.00000
5250,   56.10289,    6.75000,    0.00000
5251,   55.66987,    5.00000,    0.00000
5252,   57.40192,   14.50000,    0.00000
5253,   54.25000,    0.43301,    0.00000
5254,   55.00000,    2.59808,    0.00000
5255,   56.53590,    8.50000,    0.00000
5256,   57.40192,   14.00000,    0.00000
5257,   56.96891,   10.75000,    0.00000
5258,   54.50000,    0.86603,    0.00000
5259,   56.10289,    6.25000,    0.00000
5260,   57.40192,   13.50000,    0.00000
5261,   55.66987,    4.50000,    0.00000
5262,   56.53590,    8.00000,    0.00000
5263,   55.25000,    3.03109,    0.00000
5264,   56.96891,   10.25000,    0.00000
5265,   57.40192,   13.00000,    0.00000
5266,   57.83494,   18.75000,    0.00000
5267,   54.75000,    1.29904,    0.00000
5268,   57.83494,   18.25000,    0.00000
5269,   57.86245,   19.29167,    0.00000
5270,   57.83494,   17.75000,    0.00000
5271,   56.96891,    9.75000,    0.00000
5272,   56.10289,    5.75000,    0.00000
5273,   57.40192,   12.50000,    0.00000
5274,   57.83494,   17.25000,    0.00000
5275,   56.53590,    7.50000,    0.00000
5276,   55.66987,    4.00000,    0.00000
5277,   57.83494,   16.75000,    0.00000
5278,   55.00000,    1.73205,    0.00000
5279,   57.83494,   16.25000,    0.00000
5280,   57.40192,   12.00000,    0.00000
5281,   56.96891,    9.25000,    0.00000
5282,   57.83494,   15.75000,    0.00000
5283,   58.00000,   20.00000,    0.00000
5284,   56.10289,    5.25000,    0.00000
5285,   56.53590,    7.00000,    0.00000
5286,   57.40192,   11.50000,    0.00000
5287,   57.83494,   15.25000,    0.00000
5288,   54.50000,    0.00000,    0.00000
5289,   55.25000,    2.16506,    0.00000
5290,   56.96891,    8.75000,    0.00000
5291,   57.83494,   14.75000,    0.00000
5292,   57.40192,   11.00000,    0.00000
5293,   57.83494,   14.25000,    0.00000
5294,   55.70727,    3.41897,    0.00000
5295,   56.53590,    6.50000,    0.00000
5296,   56.10289,    4.75000,    0.00000
5297,   54.75000,    0.43301,    0.00000
5298,   55.50000,    2.59808,    0.00000
5299,   56.96891,    8.25000,    0.00000
5300,   57.83494,   13.75000,    0.00000
5301,   57.40192,   10.50000,    0.00000
5302,   57.83494,   13.25000,    0.00000
5303,   55.00000,    0.86603,    0.00000
5304,   56.53590,    6.00000,    0.00000
5305,   57.40192,   10.00000,    0.00000
5306,   58.26907,   19.53690,    0.00000
5307,   56.96891,    7.75000,    0.00000
5308,   56.10289,    4.25000,    0.00000
5309,   58.26795,   19.00000,    0.00000
5310,   55.73397,    2.95167,    0.00000
5311,   58.26795,   18.50000,    0.00000
5312,   57.83494,   12.75000,    0.00000
5313,   58.26795,   18.00000,    0.00000
5314,   58.26795,   17.50000,    0.00000
5315,   55.25000,    1.29904,    0.00000
5316,   58.26795,   17.00000,    0.00000
5317,   57.83494,   12.25000,    0.00000
5318,   57.40192,    9.50000,    0.00000
5319,   56.53590,    5.50000,    0.00000
5320,   58.26795,   16.50000,    0.00000
5321,   56.96891,    7.25000,    0.00000
5322,   58.26795,   16.00000,    0.00000
5323,   56.10289,    3.75000,    0.00000
5324,   57.83494,   11.75000,    0.00000
5325,   55.50000,    1.73205,    0.00000
5326,   58.26795,   15.50000,    0.00000
5327,   57.40192,    9.00000,    0.00000
5328,   58.26795,   15.00000,    0.00000
5329,   56.96891,    6.75000,    0.00000
5330,   56.53590,    5.00000,    0.00000
5331,   57.83494,   11.25000,    0.00000
5332,   58.50000,   20.00000,    0.00000
5333,   55.00000,    0.00000,    0.00000
5334,   58.26795,   14.50000,    0.00000
5335,   55.75000,    2.16506,    0.00000
5336,   57.40192,    8.50000,    0.00000
5337,   57.83494,   10.75000,    0.00000
5338,   58.26795,   14.00000,    0.00000
5339,   56.96891,    6.25000,    0.00000
5340,   55.25000,    0.43301,    0.00000
5341,   56.53590,    4.50000,    0.00000
5342,   58.26795,   13.50000,    0.00000
5343,   56.00000,    2.59808,    0.00000
5344,   57.40192,    8.00000,    0.00000
5345,   57.83494,   10.25000,    0.00000
5346,   58.26795,   13.00000,    0.00000
5347,   55.50000,    0.86603,    0.00000
5348,   58.70096,   18.75000,    0.00000
5349,   58.71497,   19.39286,    0.00000
5350,   56.96891,    5.75000,    0.00000
5351,   58.70096,   18.25000,    0.00000
5352,   57.83494,    9.75000,    0.00000
5353,   58.70096,   17.75000,    0.00000
5354,   57.40192,    7.50000,    0.00000
5355,   58.26795,   12.50000,    0.00000
5356,   56.25000,    3.03109,    0.00000
5357,   56.53590,    4.00000,    0.00000
5358,   58.70096,   17.25000,    0.00000
5359,   58.70096,   16.75000,    0.00000
5360,   55.75000,    1.29904,    0.00000
5361,   58.26795,   12.00000,    0.00000
5362,   58.70096,   16.25000,    0.00000
5363,   57.83494,    9.25000,    0.00000
5364,   56.96891,    5.25000,    0.00000
5365,   58.70096,   15.75000,    0.00000
5366,   57.40192,    7.00000,    0.00000
5367,   58.26795,   11.50000,    0.00000
5368,   58.70096,   15.25000,    0.00000
5369,   56.53590,    3.50000,    0.00000
5370,   56.00000,    1.73205,    0.00000
5371,   57.83494,    8.75000,    0.00000
5372,   58.70096,   14.75000,    0.00000
5373,   58.26795,   11.00000,    0.00000
5374,   57.40192,    6.50000,    0.00000
5375,   56.96891,    4.75000,    0.00000
5376,   58.70096,   14.25000,    0.00000
5377,   55.50000,    0.00000,    0.00000
5378,   59.00000,   20.00000,    0.00000
5379,   56.25000,    2.16506,    0.00000
5380,   57.83494,    8.25000,    0.00000
5381,   58.70096,   13.75000,    0.00000
5382,   58.26795,   10.50000,    0.00000
5383,   55.75000,    0.43301,    0.00000
5384,   57.40192,    6.00000,    0.00000
5385,   56.44853,    2.54005,    0.00000
5386,   58.70096,   13.25000,    0.00000
5387,   56.96891,    4.25000,    0.00000
5388,   57.83494,    7.75000,    0.00000
5389,   58.26795,   10.00000,    0.00000
5390,   59.13397,   19.50000,    0.00000
5391,   59.13397,   19.00000,    0.00000
5392,   58.70096,   12.75000,    0.00000
5393,   59.13397,   18.50000,    0.00000
5394,   59.13397,   18.00000,    0.00000
5395,   56.00000,    0.86603,    0.00000
5396,   59.13397,   17.50000,    0.00000
5397,   57.40192,    5.50000,    0.00000
5398,   58.26795,    9.50000,    0.00000
5399,   59.13397,   17.00000,    0.00000
5400,   58.70096,   12.25000,    0.00000
5401,   57.83494,    7.25000,    0.00000
5402,   59.13397,   16.50000,    0.00000
5403,   56.96891,    3.75000,    0.00000
5404,   59.13397,   16.00000,    0.00000
5405,   56.25000,    1.29904,    0.00000
5406,   58.70096,   11.75000,    0.00000
5407,   58.26795,    9.00000,    0.00000
5408,   59.13397,   15.50000,    0.00000
5409,   57.40192,    5.00000,    0.00000
5410,   57.83494,    6.75000,    0.00000
5411,   56.92762,    3.25465,    0.00000
5412,   59.13397,   15.00000,    0.00000
5413,   58.70096,   11.25000,    0.00000
5414,   56.50000,    1.73205,    0.00000
5415,   59.13397,   14.50000,    0.00000
5416,   58.26795,    8.50000,    0.00000
5417,   58.70096,   10.75000,    0.00000
5418,   59.13397,   14.00000,    0.00000
5419,   57.83494,    6.25000,    0.00000
5420,   57.40192,    4.50000,    0.00000
5421,   56.00000,    0.00000,    0.00000
5422,   56.75000,    2.16506,    0.00000
5423,   59.13397,   13.50000,    0.00000
5424,   58.26795,    8.00000,    0.00000
5425,   59.50000,   20.00000,    0.00000
5426,   58.70096,   10.25000,    0.00000
5427,   59.13397,   13.00000,    0.00000
5428,   56.99267,    2.74094,    0.00000
5429,   56.25000,    0.43301,    0.00000
5430,   59.55582,   19.29167,    0.00000
5431,   57.83494,    5.75000,    0.00000
5432,   59.56699,   18.75000,    0.00000
5433,   58.70096,    9.75000,    0.00000
5434,   57.40192,    4.00000,    0.00000
5435,   59.56699,   18.25000,    0.00000
5436,   58.26795,    7.50000,    0.00000
5437,   59.13397,   12.50000,    0.00000
5438,   59.56699,   17.75000,    0.00000
5439,   59.56699,   17.25000,    0.00000
5440,   56.50000,    0.86603,    0.00000
5441,   59.56699,   16.75000,    0.00000
5442,   59.13397,   12.00000,    0.00000
5443,   58.70096,    9.25000,    0.00000
5444,   59.56699,   16.25000,    0.00000
5445,   57.83494,    5.25000,    0.00000
5446,   58.26795,    7.00000,    0.00000
5447,   59.56699,   15.75000,    0.00000
5448,   57.40192,    3.50000,    0.00000
5449,   59.13397,   11.50000,    0.00000
5450,   56.75000,    1.29904,    0.00000
5451,   59.56699,   15.25000,    0.00000
5452,   58.70096,    8.75000,    0.00000
5453,   59.56699,   14.75000,    0.00000
5454,   58.26795,    6.50000,    0.00000
5455,   57.83494,    4.75000,    0.00000
5456,   59.13397,   11.00000,    0.00000
5457,   59.56699,   14.25000,    0.00000
5458,   57.00000,    1.73205,    0.00000
5459,   58.70096,    8.25000,    0.00000
5460,   57.41631,    3.00585,    0.00000
5461,   59.13397,   10.50000,    0.00000
5462,   59.56699,   13.75000,    0.00000
5463,   58.26795,    6.00000,    0.00000
5464,   56.50000,    0.00000,    0.00000
5465,   57.83494,    4.25000,    0.00000
5466,   59.56699,   13.25000,    0.00000
5467,   57.25000,    2.16506,    0.00000
5468,   58.70096,    7.75000,    0.00000
5469,   59.13397,   10.00000,    0.00000
5470,   60.00000,   20.00000,    0.00000
5471,   60.00000,   19.50000,    0.00000
5472,   59.56699,   12.75000,    0.00000
5473,   60.00000,   19.00000,    0.00000
5474,   60.00000,   18.50000,    0.00000
5475,   56.75000,    0.43301,    0.00000
5476,   60.00000,   18.00000,    0.00000
5477,   58.26795,    5.50000,    0.00000
5478,   60.00000,   17.50000,    0.00000
5479,   59.13397,    9.50000,    0.00000
5480,   59.56699,   12.25000,    0.00000
5481,   58.70096,    7.25000,    0.00000
5482,   57.83494,    3.75000,    0.00000
5483,   60.00000,   17.00000,    0.00000
5484,   57.50000,    2.59808,    0.00000
5485,   60.00000,   16.50000,    0.00000
5486,   57.00000,    0.86603,    0.00000
5487,   60.00000,   16.00000,    0.00000
5488,   59.56699,   11.75000,    0.00000
5489,   59.13397,    9.00000,    0.00000
5490,   58.26795,    5.00000,    0.00000
5491,   60.00000,   15.50000,    0.00000
5492,   58.70096,    6.75000,    0.00000
5493,   57.82628,    3.28211,    0.00000
5494,   59.56699,   11.25000,    0.00000
5495,   60.00000,   15.00000,    0.00000
5496,   57.25000,    1.29904,    0.00000
5497,   59.13397,    8.50000,    0.00000
5498,   60.00000,   14.50000,    0.00000
5499,   59.56699,   10.75000,    0.00000
5500,   58.70096,    6.25000,    0.00000
5501,   58.26795,    4.50000,    0.00000
5502,   60.00000,   14.00000,    0.00000
5503,   57.50000,    1.73205,    0.00000
5504,   59.13397,    8.00000,    0.00000
5505,   60.00000,   13.50000,    0.00000
5506,   59.56699,   10.25000,    0.00000
5507,   58.70096,    5.75000,    0.00000
5508,   60.00000,   13.00000,    0.00000
5509,   57.00000,    0.00000,    0.00000
5510,   58.26795,    4.00000,    0.00000
5511,   59.13397,    7.50000,    0.00000
5512,   57.75000,    2.16506,    0.00000
5513,   59.56699,    9.75000,    0.00000
5514,   57.92751,    2.69219,    0.00000
5515,   60.00000,   12.50000,    0.00000
5516,   57.25000,    0.43301,    0.00000
5517,   58.70096,    5.25000,    0.00000
5518,   59.56699,    9.25000,    0.00000
5519,   60.00000,   12.00000,    0.00000
5520,   59.13397,    7.00000,    0.00000
5521,   58.26795,    3.50000,    0.00000
5522,   60.00000,   11.50000,    0.00000
5523,   57.50000,    0.86603,    0.00000
5524,   59.56699,    8.75000,    0.00000
5525,   58.70096,    4.75000,    0.00000
5526,   59.13397,    6.50000,    0.00000
5527,   60.00000,   11.00000,    0.00000
5528,   58.25000,    3.03109,    0.00000
5529,   57.75000,    1.29904,    0.00000
5530,   59.56699,    8.25000,    0.00000
5531,   60.00000,   10.50000,    0.00000
5532,   59.13397,    6.00000,    0.00000
5533,   58.70096,    4.25000,    0.00000
5534,   58.00000,    1.73205,    0.00000
5535,   59.56699,    7.75000,    0.00000
5536,   60.00000,   10.00000,    0.00000
5537,   57.50000,    0.00000,    0.00000
5538,   59.13397,    5.50000,    0.00000
5539,   58.70096,    3.75000,    0.00000
5540,   60.00000,    9.50000,    0.00000
5541,   59.56699,    7.25000,    0.00000
5542,   58.25000,    2.16506,    0.00000
5543,   57.75000,    0.43301,    0.00000
5544,   60.00000,    9.00000,    0.00000
5545,   59.13397,    5.00000,    0.00000
5546,   59.56699,    6.75000,    0.00000
5547,   58.50000,    2.59808,    0.00000
5548,   58.00000,    0.86603,    0.00000
5549,   60.00000,    8.50000,    0.00000
5550,   59.13397,    4.50000,    0.00000
5551,   59.56699,    6.25000,    0.00000
5552,   58.75000,    3.03109,    0.00000
5553,   58.25000,    1.29904,    0.00000
5554,   60.00000,    8.00000,    0.00000
5555,   59.56699,    5.75000,    0.00000
5556,   59.13397,    4.00000,    0.00000
5557,   58.50000,    1.73205,    0.00000
5558,   60.00000,    7.50000,    0.00000
5559,   58.00000,    0.00000,    0.00000
5560,   59.56699,    5.25000,    0.00000
5561,   60.00000,    7.00000,    0.00000
5562,   59.13397,    3.50000,    0.00000
5563,   58.75000,    2.16506,    0.00000
5564,   58.25000,    0.43301,    0.00000
5565,   59.56699,    4.75000,    0.00000
5566,   60.00000,    6.50000,    0.00000
5567,   59.00000,    2.59808,    0.00000
5568,   58.50000,    0.86603,    0.00000
5569,   60.00000,    6.00000,    0.00000
5570,   59.56699,    4.25000,    0.00000
5571,   59.25000,    3.03109,    0.00000
5572,   58.75000,    1.29904,    0.00000
5573,   60.00000,    5.50000,    0.00000
5574,   59.56699,    3.75000,    0.00000
5575,   59.00000,    1.73205,    0.00000
5576,   58.50000,    0.00000,    0.00000
5577,   60.00000,    5.00000,    0.00000
5578,   59.61232,    3.36955,    0.00000
5579,   58.75000,    0.43301,    0.00000
5580,   59.29167,    2.13755,    0.00000
5581,   60.00000,    4.50000,    0.00000
5582,   59.50000,    2.59808,    0.00000
5583,   59.00000,    0.86603,    0.00000
5584,   60.00000,    4.00000,    0.00000
5585,   60.00000,    3.50000,    0.00000
5586,   59.39286,    1.28503,    0.00000
5587,   59.53690,    1.73093,    0.00000
5588,   59.00000,    0.00000,    0.00000
5589,   60.00000,    3.00000,    0.00000
5590,   59.29167,    0.44418,    0.00000
5591,   60.00000,    2.50000,    0.00000
5592,   59.50000,    0.86603,    0.00000
5593,   60.00000,    2.00000,    0.00000
5594,   59.50000,    0.00000,    0.00000
5595,   60.00000,    1.50000,    0.00000
5596,   60.00000,    1.00000,    0.00000
5597,   60.00000,    0.50000,    0.00000
5598,   60.00000,    0.00000,    0.00000

*ELEMENT, TYPE=C3D3
1, 1449, 1451, 1382
*ELEMENT, TYPE=C3D3
2, 5584, 5581, 5570
*ELEMENT, TYPE=C3D3
3, 525, 481, 503
*ELEMENT, TYPE=C3D3
4, 5570, 5581, 5565
*ELEMENT, TYPE=C3D3
5, 5584, 5570, 5574
*ELEMENT, TYPE=C3D3
6, 503, 481, 455
*ELEMENT, TYPE=C3D3
7, 5565, 5581, 5577
*ELEMENT, TYPE=C3D3
8, 5574, 5570, 5556
*ELEMENT, TYPE=C3D3
9, 455, 481, 442
*ELEMENT, TYPE=C3D3
10, 5556, 5570, 5550
*ELEMENT, TYPE=C3D3
11, 5574, 5556, 5562
*ELEMENT, TYPE=C3D3
12, 5550, 5570, 5565
*ELEMENT, TYPE=C3D3
13, 5556, 5550, 5533
*ELEMENT, TYPE=C3D3
14, 5562, 5556, 5539
*ELEMENT, TYPE=C3D3
15, 5550, 5565, 5545
*ELEMENT, TYPE=C3D3
16, 5533, 5550, 5525
*ELEMENT, TYPE=C3D3
17, 5539, 5556, 5533
*ELEMENT, TYPE=C3D3
18, 5545, 5565, 5560
*ELEMENT, TYPE=C3D3
19, 5525, 5550, 5545
*ELEMENT, TYPE=C3D3
20, 5539, 5533, 5510
*ELEMENT, TYPE=C3D3
21, 5560, 5565, 5577
*ELEMENT, TYPE=C3D3
22, 5510, 5533, 5501
*ELEMENT, TYPE=C3D3
23, 5539, 5510, 5521
*ELEMENT, TYPE=C3D3
24, 5501, 5533, 5525
*ELEMENT, TYPE=C3D3
25, 5510, 5501, 5465
*ELEMENT, TYPE=C3D3
26, 5521, 5510, 5482
*ELEMENT, TYPE=C3D3
27, 5501, 5525, 5490
*ELEMENT, TYPE=C3D3
28, 5465, 5501, 5455
*ELEMENT, TYPE=C3D3
29, 5482, 5510, 5465
*ELEMENT, TYPE=C3D3
30, 5490, 5525, 5517
*ELEMENT, TYPE=C3D3
31, 5455, 5501, 5490
*ELEMENT, TYPE=C3D3
32, 5482, 5465, 5434
*ELEMENT, TYPE=C3D3
33, 5517, 5525, 5545
*ELEMENT, TYPE=C3D3
34, 5434, 5465, 5420
*ELEMENT, TYPE=C3D3
35, 5482, 5434, 5448
*ELEMENT, TYPE=C3D3
36, 5420, 5465, 5455
*ELEMENT, TYPE=C3D3
37, 5434, 5420, 5387
*ELEMENT, TYPE=C3D3
38, 5448, 5434, 5403
*ELEMENT, TYPE=C3D3
39, 5420, 5455, 5409
*ELEMENT, TYPE=C3D3
40, 5387, 5420, 5375
*ELEMENT, TYPE=C3D3
41, 5403, 5434, 5387
*ELEMENT, TYPE=C3D3
42, 5409, 5455, 5445
*ELEMENT, TYPE=C3D3
43, 5375, 5420, 5409
*ELEMENT, TYPE=C3D3
44, 5403, 5387, 5357
*ELEMENT, TYPE=C3D3
45, 5445, 5455, 5490
*ELEMENT, TYPE=C3D3
46, 5357, 5387, 5341
*ELEMENT, TYPE=C3D3
47, 5403, 5357, 5369
*ELEMENT, TYPE=C3D3
48, 5341, 5387, 5375
*ELEMENT, TYPE=C3D3
49, 5357, 5341, 5308
*ELEMENT, TYPE=C3D3
50, 5369, 5357, 5323
*ELEMENT, TYPE=C3D3
51, 5341, 5375, 5330
*ELEMENT, TYPE=C3D3
52, 5308, 5341, 5296
*ELEMENT, TYPE=C3D3
53, 5323, 5357, 5308
*ELEMENT, TYPE=C3D3
54, 5330, 5375, 5364
*ELEMENT, TYPE=C3D3
55, 5296, 5341, 5330
*ELEMENT, TYPE=C3D3
56, 5323, 5308, 5276
*ELEMENT, TYPE=C3D3
57, 5364, 5375, 5409
*ELEMENT, TYPE=C3D3
58, 5276, 5308, 5261
*ELEMENT, TYPE=C3D3
59, 5323, 5276, 5294
*ELEMENT, TYPE=C3D3
60, 5261, 5308, 5296
*ELEMENT, TYPE=C3D3
61, 5276, 5261, 5231
*ELEMENT, TYPE=C3D3
62, 5294, 5276, 5243
*ELEMENT, TYPE=C3D3
63, 5261, 5296, 5251
*ELEMENT, TYPE=C3D3
64, 5231, 5261, 5216
*ELEMENT, TYPE=C3D3
65, 5243, 5276, 5231
*ELEMENT, TYPE=C3D3
66, 5251, 5296, 5284
*ELEMENT, TYPE=C3D3
67, 5216, 5261, 5251
*ELEMENT, TYPE=C3D3
68, 5243, 5231, 5196
*ELEMENT, TYPE=C3D3
69, 5284, 5296, 5330
*ELEMENT, TYPE=C3D3
70, 5196, 5231, 5182
*ELEMENT, TYPE=C3D3
71, 5243, 5196, 5211
*ELEMENT, TYPE=C3D3
72, 5182, 5231, 5216
*ELEMENT, TYPE=C3D3
73, 5196, 5182, 5151
*ELEMENT, TYPE=C3D3
74, 5211, 5196, 5166
*ELEMENT, TYPE=C3D3
75, 5182, 5216, 5172
*ELEMENT, TYPE=C3D3
76, 5151, 5182, 5136
*ELEMENT, TYPE=C3D3
77, 5166, 5196, 5151
*ELEMENT, TYPE=C3D3
78, 5172, 5216, 5206
*ELEMENT, TYPE=C3D3
79, 5136, 5182, 5172
*ELEMENT, TYPE=C3D3
80, 5166, 5151, 5118
*ELEMENT, TYPE=C3D3
81, 5206, 5216, 5251
*ELEMENT, TYPE=C3D3
82, 5118, 5151, 5104
*ELEMENT, TYPE=C3D3
83, 5166, 5118, 5132
*ELEMENT, TYPE=C3D3
84, 5104, 5151, 5136
*ELEMENT, TYPE=C3D3
85, 5118, 5104, 5071
*ELEMENT, TYPE=C3D3
86, 5132, 5118, 5088
*ELEMENT, TYPE=C3D3
87, 5104, 5136, 5091
*ELEMENT, TYPE=C3D3
88, 5071, 5104, 5057
*ELEMENT, TYPE=C3D3
89, 5088, 5118, 5071
*ELEMENT, TYPE=C3D3
90, 5091, 5136, 5125
*ELEMENT, TYPE=C3D3
91, 5057, 5104, 5091
*ELEMENT, TYPE=C3D3
92, 5088, 5071, 5040
*ELEMENT, TYPE=C3D3
93, 5125, 5136, 5172
*ELEMENT, TYPE=C3D3
94, 5040, 5071, 5026
*ELEMENT, TYPE=C3D3
95, 5088, 5040, 5051
*ELEMENT, TYPE=C3D3
96, 5026, 5071, 5057
*ELEMENT, TYPE=C3D3
97, 5040, 5026, 4994
*ELEMENT, TYPE=C3D3
98, 5051, 5040, 5007
*ELEMENT, TYPE=C3D3
99, 5026, 5057, 5012
*ELEMENT, TYPE=C3D3
100, 4994, 5026, 4978
*ELEMENT, TYPE=C3D3
101, 5007, 5040, 4994
*ELEMENT, TYPE=C3D3
102, 5012, 5057, 5047
*ELEMENT, TYPE=C3D3
103, 4978, 5026, 5012
*ELEMENT, TYPE=C3D3
104, 5007, 4994, 4960
*ELEMENT, TYPE=C3D3
105, 5047, 5057, 5091
*ELEMENT, TYPE=C3D3
106, 4960, 4994, 4947
*ELEMENT, TYPE=C3D3
107, 5007, 4960, 4971
*ELEMENT, TYPE=C3D3
108, 4947, 4994, 4978
*ELEMENT, TYPE=C3D3
109, 4960, 4947, 4915
*ELEMENT, TYPE=C3D3
110, 4971, 4960, 4925
*ELEMENT, TYPE=C3D3
111, 4947, 4978, 4932
*ELEMENT, TYPE=C3D3
112, 4915, 4947, 4899
*ELEMENT, TYPE=C3D3
113, 4925, 4960, 4915
*ELEMENT, TYPE=C3D3
114, 4932, 4978, 4965
*ELEMENT, TYPE=C3D3
115, 4899, 4947, 4932
*ELEMENT, TYPE=C3D3
116, 4925, 4915, 4880
*ELEMENT, TYPE=C3D3
117, 4965, 4978, 5012
*ELEMENT, TYPE=C3D3
118, 4880, 4915, 4869
*ELEMENT, TYPE=C3D3
119, 4925, 4880, 4893
*ELEMENT, TYPE=C3D3
120, 4869, 4915, 4899
*ELEMENT, TYPE=C3D3
121, 4880, 4869, 4836
*ELEMENT, TYPE=C3D3
122, 4893, 4880, 4846
*ELEMENT, TYPE=C3D3
123, 4869, 4899, 4852
*ELEMENT, TYPE=C3D3
124, 4836, 4869, 4821
*ELEMENT, TYPE=C3D3
125, 4846, 4880, 4836
*ELEMENT, TYPE=C3D3
126, 4852, 4899, 4886
*ELEMENT, TYPE=C3D3
127, 4821, 4869, 4852
*ELEMENT, TYPE=C3D3
128, 4846, 4836, 4800
*ELEMENT, TYPE=C3D3
129, 4886, 4899, 4932
*ELEMENT, TYPE=C3D3
130, 4800, 4836, 4789
*ELEMENT, TYPE=C3D3
131, 4846, 4800, 4817
*ELEMENT, TYPE=C3D3
132, 4789, 4836, 4821
*ELEMENT, TYPE=C3D3
133, 4800, 4789, 4754
*ELEMENT, TYPE=C3D3
134, 4817, 4800, 4771
*ELEMENT, TYPE=C3D3
135, 4789, 4821, 4773
*ELEMENT, TYPE=C3D3
136, 4754, 4789, 4743
*ELEMENT, TYPE=C3D3
137, 4771, 4800, 4754
*ELEMENT, TYPE=C3D3
138, 4773, 4821, 4807
*ELEMENT, TYPE=C3D3
139, 4743, 4789, 4773
*ELEMENT, TYPE=C3D3
140, 4771, 4754, 4724
*ELEMENT, TYPE=C3D3
141, 4807, 4821, 4852
*ELEMENT, TYPE=C3D3
142, 4724, 4754, 4708
*ELEMENT, TYPE=C3D3
143, 4771, 4724, 4739
*ELEMENT, TYPE=C3D3
144, 4708, 4754, 4743
*ELEMENT, TYPE=C3D3
145, 4724, 4708, 4677
*ELEMENT, TYPE=C3D3
146, 4739, 4724, 4692
*ELEMENT, TYPE=C3D3
147, 4708, 4743, 4696
*ELEMENT, TYPE=C3D3
148, 4677, 4708, 4662
*ELEMENT, TYPE=C3D3
149, 4692, 4724, 4677
*ELEMENT, TYPE=C3D3
150, 4696, 4743, 4728
*ELEMENT, TYPE=C3D3
151, 4662, 4708, 4696
*ELEMENT, TYPE=C3D3
152, 4692, 4677, 4647
*ELEMENT, TYPE=C3D3
153, 4728, 4743, 4773
*ELEMENT, TYPE=C3D3
154, 4647, 4677, 4631
*ELEMENT, TYPE=C3D3
155, 4692, 4647, 4659
*ELEMENT, TYPE=C3D3
156, 4631, 4677, 4662
*ELEMENT, TYPE=C3D3
157, 4647, 4631, 4599
*ELEMENT, TYPE=C3D3
158, 4659, 4647, 4612
*ELEMENT, TYPE=C3D3
159, 4631, 4662, 4616
*ELEMENT, TYPE=C3D3
160, 4599, 4631, 4585
*ELEMENT, TYPE=C3D3
161, 4612, 4647, 4599
*ELEMENT, TYPE=C3D3
162, 4616, 4662, 4648
*ELEMENT, TYPE=C3D3
163, 4585, 4631, 4616
*ELEMENT, TYPE=C3D3
164, 4612, 4599, 4565
*ELEMENT, TYPE=C3D3
165, 4648, 4662, 4696
*ELEMENT, TYPE=C3D3
166, 4565, 4599, 4553
*ELEMENT, TYPE=C3D3
167, 4612, 4565, 4584
*ELEMENT, TYPE=C3D3
168, 4553, 4599, 4585
*ELEMENT, TYPE=C3D3
169, 4565, 4553, 4519
*ELEMENT, TYPE=C3D3
170, 4584, 4565, 4536
*ELEMENT, TYPE=C3D3
171, 4553, 4585, 4538
*ELEMENT, TYPE=C3D3
172, 4519, 4553, 4506
*ELEMENT, TYPE=C3D3
173, 4536, 4565, 4519
*ELEMENT, TYPE=C3D3
174, 4538, 4585, 4570
*ELEMENT, TYPE=C3D3
175, 4506, 4553, 4538
*ELEMENT, TYPE=C3D3
176, 4536, 4519, 4489
*ELEMENT, TYPE=C3D3
177, 4570, 4585, 4616
*ELEMENT, TYPE=C3D3
178, 4489, 4519, 4473
*ELEMENT, TYPE=C3D3
179, 4536, 4489, 4505
*ELEMENT, TYPE=C3D3
180, 4473, 4519, 4506
*ELEMENT, TYPE=C3D3
181, 4489, 4473, 4439
*ELEMENT, TYPE=C3D3
182, 4505, 4489, 4458
*ELEMENT, TYPE=C3D3
183, 4473, 4506, 4459
*ELEMENT, TYPE=C3D3
184, 4439, 4473, 4427
*ELEMENT, TYPE=C3D3
185, 4458, 4489, 4439
*ELEMENT, TYPE=C3D3
186, 4459, 4506, 4492
*ELEMENT, TYPE=C3D3
187, 4427, 4473, 4459
*ELEMENT, TYPE=C3D3
188, 4458, 4439, 4410
*ELEMENT, TYPE=C3D3
189, 4492, 4506, 4538
*ELEMENT, TYPE=C3D3
190, 4410, 4439, 4393
*ELEMENT, TYPE=C3D3
191, 4458, 4410, 4430
*ELEMENT, TYPE=C3D3
192, 4393, 4439, 4427
*ELEMENT, TYPE=C3D3
193, 4410, 4393, 4363
*ELEMENT, TYPE=C3D3
194, 4430, 4410, 4379
*ELEMENT, TYPE=C3D3
195, 4393, 4427, 4381
*ELEMENT, TYPE=C3D3
196, 4363, 4393, 4347
*ELEMENT, TYPE=C3D3
197, 4379, 4410, 4363
*ELEMENT, TYPE=C3D3
198, 4430, 4379, 4394
*ELEMENT, TYPE=C3D3
199, 4381, 4427, 4413
*ELEMENT, TYPE=C3D3
200, 4347, 4393, 4381
*ELEMENT, TYPE=C3D3
201, 4379, 4363, 4332
*ELEMENT, TYPE=C3D3
202, 4394, 4379, 4348
*ELEMENT, TYPE=C3D3
203, 4413, 4427, 4459
*ELEMENT, TYPE=C3D3
204, 4347, 4381, 4333
*ELEMENT, TYPE=C3D3
205, 4332, 4363, 4312
*ELEMENT, TYPE=C3D3
206, 4348, 4379, 4332
*ELEMENT, TYPE=C3D3
207, 4333, 4381, 4365
*ELEMENT, TYPE=C3D3
208, 4347, 4333, 4301
*ELEMENT, TYPE=C3D3
209, 4312, 4363, 4347
*ELEMENT, TYPE=C3D3
210, 4348, 4332, 4302
*ELEMENT, TYPE=C3D3
211, 4365, 4381, 4413
*ELEMENT, TYPE=C3D3
212, 4301, 4333, 4287
*ELEMENT, TYPE=C3D3
213, 4312, 4347, 4301
*ELEMENT, TYPE=C3D3
214, 4302, 4332, 4286
*ELEMENT, TYPE=C3D3
215, 4287, 4333, 4317
*ELEMENT, TYPE=C3D3
216, 4301, 4287, 4254
*ELEMENT, TYPE=C3D3
217, 4312, 4301, 4266
*ELEMENT, TYPE=C3D3
218, 4286, 4332, 4312
*ELEMENT, TYPE=C3D3
219, 4317, 4333, 4365
*ELEMENT, TYPE=C3D3
220, 4254, 4287, 4239
*ELEMENT, TYPE=C3D3
221, 4266, 4301, 4254
*ELEMENT, TYPE=C3D3
222, 4286, 4312, 4266
*ELEMENT, TYPE=C3D3
223, 4239, 4287, 4270
*ELEMENT, TYPE=C3D3
224, 4254, 4239, 4207
*ELEMENT, TYPE=C3D3
225, 4266, 4254, 4221
*ELEMENT, TYPE=C3D3
226, 4286, 4266, 4237
*ELEMENT, TYPE=C3D3
227, 4270, 4287, 4317
*ELEMENT, TYPE=C3D3
228, 4207, 4239, 4190
*ELEMENT, TYPE=C3D3
229, 4221, 4254, 4207
*ELEMENT, TYPE=C3D3
230, 4237, 4266, 4221
*ELEMENT, TYPE=C3D3
231, 4190, 4239, 4222
*ELEMENT, TYPE=C3D3
232, 4207, 4190, 4159
*ELEMENT, TYPE=C3D3
233, 4221, 4207, 4174
*ELEMENT, TYPE=C3D3
234, 4237, 4221, 4188
*ELEMENT, TYPE=C3D3
235, 4222, 4239, 4270
*ELEMENT, TYPE=C3D3
236, 4159, 4190, 4144
*ELEMENT, TYPE=C3D3
237, 4174, 4207, 4159
*ELEMENT, TYPE=C3D3
238, 4188, 4221, 4174
*ELEMENT, TYPE=C3D3
239, 4144, 4190, 4177
*ELEMENT, TYPE=C3D3
240, 4159, 4144, 4109
*ELEMENT, TYPE=C3D3
241, 4174, 4159, 4128
*ELEMENT, TYPE=C3D3
242, 4188, 4174, 4139
*ELEMENT, TYPE=C3D3
243, 4177, 4190, 4222
*ELEMENT, TYPE=C3D3
244, 4109, 4144, 4095
*ELEMENT, TYPE=C3D3
245, 4128, 4159, 4109
*ELEMENT, TYPE=C3D3
246, 4139, 4174, 4128
*ELEMENT, TYPE=C3D3
247, 4095, 4144, 4131
*ELEMENT, TYPE=C3D3
248, 4109, 4095, 4062
*ELEMENT, TYPE=C3D3
249, 4128, 4109, 4080
*ELEMENT, TYPE=C3D3
250, 4139, 4128, 4094
*ELEMENT, TYPE=C3D3
251, 4131, 4144, 4177
*ELEMENT, TYPE=C3D3
252, 4062, 4095, 4050
*ELEMENT, TYPE=C3D3
253, 4080, 4109, 4062
*ELEMENT, TYPE=C3D3
254, 4094, 4128, 4080
*ELEMENT, TYPE=C3D3
255, 4050, 4095, 4084
*ELEMENT, TYPE=C3D3
256, 4062, 4050, 4017
*ELEMENT, TYPE=C3D3
257, 4094, 4080, 4045
*ELEMENT, TYPE=C3D3
258, 4084, 4095, 4131
*ELEMENT, TYPE=C3D3
259, 4017, 4050, 4005
*ELEMENT, TYPE=C3D3
260, 4062, 4017, 4032
*ELEMENT, TYPE=C3D3
261, 4045, 4080, 4032
*ELEMENT, TYPE=C3D3
262, 4084, 4131, 4117
*ELEMENT, TYPE=C3D3
263, 4005, 4050, 4037
*ELEMENT, TYPE=C3D3
264, 4032, 4017, 3983
*ELEMENT, TYPE=C3D3
265, 4032, 4080, 4062
*ELEMENT, TYPE=C3D3
266, 4117, 4131, 4165
*ELEMENT, TYPE=C3D3
267, 4037, 4050, 4084
*ELEMENT, TYPE=C3D3
268, 3983, 4017, 3969
*ELEMENT, TYPE=C3D3
269, 4165, 4131, 4177
*ELEMENT, TYPE=C3D3
270, 4037, 4084, 4070
*ELEMENT, TYPE=C3D3
271, 3969, 4017, 4005
*ELEMENT, TYPE=C3D3
272, 3983, 3969, 3935
*ELEMENT, TYPE=C3D3
273, 4070, 4084, 4117
*ELEMENT, TYPE=C3D3
274, 4037, 4070, 4021
*ELEMENT, TYPE=C3D3
275, 3935, 3969, 3922
*ELEMENT, TYPE=C3D3
276, 3983, 3935, 3954
*ELEMENT, TYPE=C3D3
277, 4070, 4117, 4101
*ELEMENT, TYPE=C3D3
278, 4021, 4070, 4055
*ELEMENT, TYPE=C3D3
279, 3922, 3969, 3957
*ELEMENT, TYPE=C3D3
280, 3954, 3935, 3906
*ELEMENT, TYPE=C3D3
281, 4101, 4117, 4148
*ELEMENT, TYPE=C3D3
282, 4055, 4070, 4101
*ELEMENT, TYPE=C3D3
283, 3957, 3969, 4005
*ELEMENT, TYPE=C3D3
284, 3906, 3935, 3889
*ELEMENT, TYPE=C3D3
285, 4148, 4117, 4165
*ELEMENT, TYPE=C3D3
286, 4055, 4101, 4090
*ELEMENT, TYPE=C3D3
287, 3889, 3935, 3922
*ELEMENT, TYPE=C3D3
288, 3906, 3889, 3857
*ELEMENT, TYPE=C3D3
289, 4148, 4165, 4198
*ELEMENT, TYPE=C3D3
290, 4090, 4101, 4137
*ELEMENT, TYPE=C3D3
291, 3857, 3889, 3841
*ELEMENT, TYPE=C3D3
292, 3906, 3857, 3873
*ELEMENT, TYPE=C3D3
293, 4198, 4165, 4212
*ELEMENT, TYPE=C3D3
294, 4137, 4101, 4148
*ELEMENT, TYPE=C3D3
295, 3841, 3889, 3876
*ELEMENT, TYPE=C3D3
296, 3873, 3857, 3829
*ELEMENT, TYPE=C3D3
297, 4212, 4165, 4177
*ELEMENT, TYPE=C3D3
298, 4137, 4148, 4182
*ELEMENT, TYPE=C3D3
299, 3876, 3889, 3922
*ELEMENT, TYPE=C3D3
300, 3829, 3857, 3808
*ELEMENT, TYPE=C3D3
301, 4182, 4148, 4198
*ELEMENT, TYPE=C3D3
302, 4137, 4182, 4170
*ELEMENT, TYPE=C3D3
303, 3808, 3857, 3841
*ELEMENT, TYPE=C3D3
304, 3829, 3808, 3777
*ELEMENT, TYPE=C3D3
305, 4170, 4182, 4217
*ELEMENT, TYPE=C3D3
306, 4137, 4170, 4125
*ELEMENT, TYPE=C3D3
307, 3777, 3808, 3763
*ELEMENT, TYPE=C3D3
308, 3829, 3777, 3791
*ELEMENT, TYPE=C3D3
309, 4217, 4182, 4228
*ELEMENT, TYPE=C3D3
310, 4125, 4170, 4160
*ELEMENT, TYPE=C3D3
311, 3763, 3808, 3793
*ELEMENT, TYPE=C3D3
312, 3791, 3777, 3746
*ELEMENT, TYPE=C3D3
313, 4228, 4182, 4198
*ELEMENT, TYPE=C3D3
314, 4160, 4170, 4206
*ELEMENT, TYPE=C3D3
315, 3793, 3808, 3841
*ELEMENT, TYPE=C3D3
316, 3746, 3777, 3729
*ELEMENT, TYPE=C3D3
317, 4206, 4170, 4217
*ELEMENT, TYPE=C3D3
318, 4160, 4206, 4193
*ELEMENT, TYPE=C3D3
319, 3729, 3777, 3763
*ELEMENT, TYPE=C3D3
320, 3746, 3729, 3698
*ELEMENT, TYPE=C3D3
321, 4193, 4206, 4242
*ELEMENT, TYPE=C3D3
322, 4160, 4193, 4146
*ELEMENT, TYPE=C3D3
323, 3698, 3729, 3681
*ELEMENT, TYPE=C3D3
324, 3746, 3698, 3713
*ELEMENT, TYPE=C3D3
325, 4242, 4206, 4253
*ELEMENT, TYPE=C3D3
326, 4146, 4193, 4181
*ELEMENT, TYPE=C3D3
327, 3681, 3729, 3714
*ELEMENT, TYPE=C3D3
328, 3713, 3698, 3664
*ELEMENT, TYPE=C3D3
329, 4253, 4206, 4217
*ELEMENT, TYPE=C3D3
330, 4181, 4193, 4226
*ELEMENT, TYPE=C3D3
331, 3714, 3729, 3763
*ELEMENT, TYPE=C3D3
332, 3664, 3698, 3649
*ELEMENT, TYPE=C3D3
333, 4226, 4193, 4242
*ELEMENT, TYPE=C3D3
334, 4181, 4226, 4218
*ELEMENT, TYPE=C3D3
335, 3649, 3698, 3681
*ELEMENT, TYPE=C3D3
336, 3664, 3649, 3617
*ELEMENT, TYPE=C3D3
337, 4218, 4226, 4263
*ELEMENT, TYPE=C3D3
338, 4181, 4218, 4173
*ELEMENT, TYPE=C3D3
339, 3617, 3649, 3600
*ELEMENT, TYPE=C3D3
340, 3664, 3617, 3634
*ELEMENT, TYPE=C3D3
341, 4263, 4226, 4272
*ELEMENT, TYPE=C3D3
342, 4173, 4218, 4210
*ELEMENT, TYPE=C3D3
343, 3600, 3649, 3633
*ELEMENT, TYPE=C3D3
344, 3634, 3617, 3585
*ELEMENT, TYPE=C3D3
345, 4272, 4226, 4242
*ELEMENT, TYPE=C3D3
346, 4210, 4218, 4255
*ELEMENT, TYPE=C3D3
347, 3633, 3649, 3681
*ELEMENT, TYPE=C3D3
348, 3585, 3617, 3570
*ELEMENT, TYPE=C3D3
349, 4255, 4218, 4263
*ELEMENT, TYPE=C3D3
350, 4210, 4255, 4247
*ELEMENT, TYPE=C3D3
351, 3570, 3617, 3600
*ELEMENT, TYPE=C3D3
352, 3585, 3570, 3536
*ELEMENT, TYPE=C3D3
353, 4247, 4255, 4291
*ELEMENT, TYPE=C3D3
354, 4210, 4247, 4200
*ELEMENT, TYPE=C3D3
355, 3536, 3570, 3522
*ELEMENT, TYPE=C3D3
356, 3585, 3536, 3550
*ELEMENT, TYPE=C3D3
357, 4291, 4255, 4300
*ELEMENT, TYPE=C3D3
358, 4200, 4247, 4233
*ELEMENT, TYPE=C3D3
359, 3522, 3570, 3555
*ELEMENT, TYPE=C3D3
360, 3550, 3536, 3508
*ELEMENT, TYPE=C3D3
361, 4300, 4255, 4263
*ELEMENT, TYPE=C3D3
362, 4233, 4247, 4280
*ELEMENT, TYPE=C3D3
363, 3555, 3570, 3600
*ELEMENT, TYPE=C3D3
364, 3508, 3536, 3489
*ELEMENT, TYPE=C3D3
365, 4280, 4247, 4291
*ELEMENT, TYPE=C3D3
366, 4233, 4280, 4268
*ELEMENT, TYPE=C3D3
367, 3489, 3536, 3522
*ELEMENT, TYPE=C3D3
368, 3508, 3489, 3460
*ELEMENT, TYPE=C3D3
369, 4268, 4280, 4313
*ELEMENT, TYPE=C3D3
370, 4233, 4268, 4223
*ELEMENT, TYPE=C3D3
371, 3460, 3489, 3441
*ELEMENT, TYPE=C3D3
372, 3508, 3460, 3474
*ELEMENT, TYPE=C3D3
373, 4313, 4280, 4326
*ELEMENT, TYPE=C3D3
374, 4223, 4268, 4261
*ELEMENT, TYPE=C3D3
375, 3441, 3489, 3473
*ELEMENT, TYPE=C3D3
376, 3474, 3460, 3428
*ELEMENT, TYPE=C3D3
377, 4326, 4280, 4291
*ELEMENT, TYPE=C3D3
378, 4261, 4268, 4306
*ELEMENT, TYPE=C3D3
379, 3473, 3489, 3522
*ELEMENT, TYPE=C3D3
380, 3428, 3460, 3409
*ELEMENT, TYPE=C3D3
381, 4306, 4268, 4313
*ELEMENT, TYPE=C3D3
382, 4261, 4306, 4299
*ELEMENT, TYPE=C3D3
383, 3409, 3460, 3441
*ELEMENT, TYPE=C3D3
384, 3428, 3409, 3380
*ELEMENT, TYPE=C3D3
385, 4299, 4306, 4343
*ELEMENT, TYPE=C3D3
386, 4261, 4299, 4256
*ELEMENT, TYPE=C3D3
387, 3380, 3409, 3360
*ELEMENT, TYPE=C3D3
388, 3428, 3380, 3396
*ELEMENT, TYPE=C3D3
389, 4343, 4306, 4351
*ELEMENT, TYPE=C3D3
390, 4256, 4299, 4294
*ELEMENT, TYPE=C3D3
391, 3360, 3409, 3393
*ELEMENT, TYPE=C3D3
392, 3396, 3380, 3348
*ELEMENT, TYPE=C3D3
393, 4351, 4306, 4313
*ELEMENT, TYPE=C3D3
394, 4294, 4299, 4338
*ELEMENT, TYPE=C3D3
395, 3393, 3409, 3441
*ELEMENT, TYPE=C3D3
396, 3348, 3380, 3331
*ELEMENT, TYPE=C3D3
397, 4338, 4299, 4343
*ELEMENT, TYPE=C3D3
398, 4294, 4338, 4329
*ELEMENT, TYPE=C3D3
399, 3331, 3380, 3360
*ELEMENT, TYPE=C3D3
400, 3348, 3331, 3301
*ELEMENT, TYPE=C3D3
401, 4329, 4338, 4375
*ELEMENT, TYPE=C3D3
402, 4294, 4329, 4285
*ELEMENT, TYPE=C3D3
403, 3301, 3331, 3281
*ELEMENT, TYPE=C3D3
404, 3348, 3301, 3319
*ELEMENT, TYPE=C3D3
405, 4375, 4338, 4383
*ELEMENT, TYPE=C3D3
406, 4285, 4329, 4322
*ELEMENT, TYPE=C3D3
407, 3281, 3331, 3314
*ELEMENT, TYPE=C3D3
408, 3319, 3301, 3270
*ELEMENT, TYPE=C3D3
409, 4383, 4338, 4343
*ELEMENT, TYPE=C3D3
410, 4322, 4329, 4367
*ELEMENT, TYPE=C3D3
411, 3314, 3331, 3360
*ELEMENT, TYPE=C3D3
412, 3270, 3301, 3254
*ELEMENT, TYPE=C3D3
413, 4367, 4329, 4375
*ELEMENT, TYPE=C3D3
414, 4322, 4367, 4356
*ELEMENT, TYPE=C3D3
415, 3254, 3301, 3281
*ELEMENT, TYPE=C3D3
416, 3270, 3254, 3220
*ELEMENT, TYPE=C3D3
417, 4356, 4367, 4404
*ELEMENT, TYPE=C3D3
418, 4322, 4356, 4311
*ELEMENT, TYPE=C3D3
419, 3220, 3254, 3200
*ELEMENT, TYPE=C3D3
420, 3270, 3220, 3238
*ELEMENT, TYPE=C3D3
421, 4404, 4367, 4412
*ELEMENT, TYPE=C3D3
422, 4311, 4356, 4353
*ELEMENT, TYPE=C3D3
423, 3200, 3254, 3233
*ELEMENT, TYPE=C3D3
424, 3238, 3220, 3191
*ELEMENT, TYPE=C3D3
425, 4412, 4367, 4375
*ELEMENT, TYPE=C3D3
426, 4353, 4356, 4396
*ELEMENT, TYPE=C3D3
427, 3233, 3254, 3281
*ELEMENT, TYPE=C3D3
428, 3191, 3220, 3174
*ELEMENT, TYPE=C3D3
429, 4396, 4356, 4404
*ELEMENT, TYPE=C3D3
430, 4353, 4396, 4392
*ELEMENT, TYPE=C3D3
431, 3174, 3220, 3200
*ELEMENT, TYPE=C3D3
432, 3191, 3174, 3142
*ELEMENT, TYPE=C3D3
433, 4392, 4396, 4435
*ELEMENT, TYPE=C3D3
434, 4353, 4392, 4349
*ELEMENT, TYPE=C3D3
435, 3142, 3174, 3125
*ELEMENT, TYPE=C3D3
436, 3191, 3142, 3158
*ELEMENT, TYPE=C3D3
437, 4435, 4396, 4440
*ELEMENT, TYPE=C3D3
438, 4349, 4392, 4387
*ELEMENT, TYPE=C3D3
439, 3125, 3174, 3151
*ELEMENT, TYPE=C3D3
440, 3158, 3142, 3108
*ELEMENT, TYPE=C3D3
441, 4440, 4396, 4404
*ELEMENT, TYPE=C3D3
442, 4387, 4392, 4432
*ELEMENT, TYPE=C3D3
443, 3151, 3174, 3200
*ELEMENT, TYPE=C3D3
444, 3108, 3142, 3091
*ELEMENT, TYPE=C3D3
445, 4432, 4392, 4435
*ELEMENT, TYPE=C3D3
446, 4387, 4432, 4423
*ELEMENT, TYPE=C3D3
447, 3091, 3142, 3125
*ELEMENT, TYPE=C3D3
448, 3108, 3091, 3060
*ELEMENT, TYPE=C3D3
449, 4423, 4432, 4468
*ELEMENT, TYPE=C3D3
450, 4387, 4423, 4384
*ELEMENT, TYPE=C3D3
451, 3060, 3091, 3044
*ELEMENT, TYPE=C3D3
452, 3108, 3060, 3083
*ELEMENT, TYPE=C3D3
453, 4468, 4432, 4475
*ELEMENT, TYPE=C3D3
454, 4384, 4423, 4421
*ELEMENT, TYPE=C3D3
455, 3044, 3091, 3072
*ELEMENT, TYPE=C3D3
456, 3083, 3060, 3029
*ELEMENT, TYPE=C3D3
457, 4475, 4432, 4435
*ELEMENT, TYPE=C3D3
458, 4421, 4423, 4466
*ELEMENT, TYPE=C3D3
459, 3072, 3091, 3125
*ELEMENT, TYPE=C3D3
460, 3029, 3060, 3014
*ELEMENT, TYPE=C3D3
461, 4466, 4423, 4468
*ELEMENT, TYPE=C3D3
462, 4421, 4466, 4461
*ELEMENT, TYPE=C3D3
463, 3014, 3060, 3044
*ELEMENT, TYPE=C3D3
464, 3029, 3014, 2978
*ELEMENT, TYPE=C3D3
465, 4461, 4466, 4503
*ELEMENT, TYPE=C3D3
466, 4421, 4461, 4417
*ELEMENT, TYPE=C3D3
467, 2978, 3014, 2965
*ELEMENT, TYPE=C3D3
468, 3029, 2978, 3003
*ELEMENT, TYPE=C3D3
469, 4503, 4466, 4508
*ELEMENT, TYPE=C3D3
470, 4417, 4461, 4457
*ELEMENT, TYPE=C3D3
471, 2965, 3014, 2993
*ELEMENT, TYPE=C3D3
472, 3003, 2978, 2956
*ELEMENT, TYPE=C3D3
473, 4508, 4466, 4468
*ELEMENT, TYPE=C3D3
474, 4457, 4461, 4501
*ELEMENT, TYPE=C3D3
475, 2993, 3014, 3044
*ELEMENT, TYPE=C3D3
476, 2956, 2978, 2932
*ELEMENT, TYPE=C3D3
477, 4501, 4461, 4503
*ELEMENT, TYPE=C3D3
478, 4457, 4501, 4497
*ELEMENT, TYPE=C3D3
479, 2932, 2978, 2965
*ELEMENT, TYPE=C3D3
480, 2956, 2932, 2902
*ELEMENT, TYPE=C3D3
481, 4497, 4501, 4540
*ELEMENT, TYPE=C3D3
482, 4457, 4497, 4453
*ELEMENT, TYPE=C3D3
483, 2902, 2932, 2883
*ELEMENT, TYPE=C3D3
484, 2956, 2902, 2918
*ELEMENT, TYPE=C3D3
485, 4540, 4501, 4544
*ELEMENT, TYPE=C3D3
486, 4453, 4497, 4493
*ELEMENT, TYPE=C3D3
487, 2883, 2932, 2914
*ELEMENT, TYPE=C3D3
488, 2918, 2902, 2872
*ELEMENT, TYPE=C3D3
489, 4544, 4501, 4503
*ELEMENT, TYPE=C3D3
490, 2914, 2932, 2965
*ELEMENT, TYPE=C3D3
491, 2918, 2872, 2893
*ELEMENT, TYPE=C3D3
492, 2914, 2965, 2940
*ELEMENT, TYPE=C3D3
493, 2893, 2872, 2842
*ELEMENT, TYPE=C3D3
494, 2940, 2965, 2993
*ELEMENT, TYPE=C3D3
495, 2914, 2940, 2892
*ELEMENT, TYPE=C3D3
496, 2842, 2872, 2825
*ELEMENT, TYPE=C3D3
497, 2940, 2993, 2974
*ELEMENT, TYPE=C3D3
498, 2892, 2940, 2927
*ELEMENT, TYPE=C3D3
499, 2825, 2872, 2849
*ELEMENT, TYPE=C3D3
500, 2974, 2993, 3021
*ELEMENT, TYPE=C3D3
501, 2927, 2940, 2974
*ELEMENT, TYPE=C3D3
502, 2849, 2872, 2902
*ELEMENT, TYPE=C3D3
503, 3021, 2993, 3044
*ELEMENT, TYPE=C3D3
504, 2849, 2902, 2883
*ELEMENT, TYPE=C3D3
505, 3021, 3044, 3072
*ELEMENT, TYPE=C3D3
506, 2849, 2883, 2833
*ELEMENT, TYPE=C3D3
507, 2833, 2883, 2864
*ELEMENT, TYPE=C3D3
508, 2849, 2833, 2801
*ELEMENT, TYPE=C3D3
509, 2864, 2883, 2914
*ELEMENT, TYPE=C3D3
510, 2801, 2833, 2786
*ELEMENT, TYPE=C3D3
511, 2786, 2833, 2812
*ELEMENT, TYPE=C3D3
512, 2801, 2786, 2753
*ELEMENT, TYPE=C3D3
513, 2812, 2833, 2864
*ELEMENT, TYPE=C3D3
514, 2753, 2786, 2736
*ELEMENT, TYPE=C3D3
515, 2801, 2753, 2774
*ELEMENT, TYPE=C3D3
516, 2736, 2786, 2765
*ELEMENT, TYPE=C3D3
517, 2753, 2736, 2701
*ELEMENT, TYPE=C3D3
518, 2774, 2753, 2723
*ELEMENT, TYPE=C3D3
519, 2765, 2786, 2812
*ELEMENT, TYPE=C3D3
520, 2701, 2736, 2681
*ELEMENT, TYPE=C3D3
521, 2723, 2753, 2701
*ELEMENT, TYPE=C3D3
522, 2681, 2736, 2716
*ELEMENT, TYPE=C3D3
523, 2701, 2681, 2654
*ELEMENT, TYPE=C3D3
524, 2716, 2736, 2765
*ELEMENT, TYPE=C3D3
525, 2681, 2716, 2665
*ELEMENT, TYPE=C3D3
526, 2654, 2681, 2625
*ELEMENT, TYPE=C3D3
527, 2716, 2765, 2747
*ELEMENT, TYPE=C3D3
528, 2665, 2716, 2696
*ELEMENT, TYPE=C3D3
529, 2625, 2681, 2665
*ELEMENT, TYPE=C3D3
530, 2747, 2765, 2794
*ELEMENT, TYPE=C3D3
531, 2696, 2716, 2747
*ELEMENT, TYPE=C3D3
532, 2625, 2665, 2615
*ELEMENT, TYPE=C3D3
533, 2794, 2765, 2812
*ELEMENT, TYPE=C3D3
534, 2615, 2665, 2643
*ELEMENT, TYPE=C3D3
535, 2625, 2615, 2584
*ELEMENT, TYPE=C3D3
536, 2643, 2665, 2696
*ELEMENT, TYPE=C3D3
537, 2615, 2643, 2595
*ELEMENT, TYPE=C3D3
538, 2584, 2615, 2564
*ELEMENT, TYPE=C3D3
539, 2643, 2696, 2676
*ELEMENT, TYPE=C3D3
540, 2595, 2643, 2628
*ELEMENT, TYPE=C3D3
541, 2564, 2615, 2595
*ELEMENT, TYPE=C3D3
542, 2676, 2696, 2726
*ELEMENT, TYPE=C3D3
543, 2628, 2643, 2676
*ELEMENT, TYPE=C3D3
544, 2564, 2595, 2546
*ELEMENT, TYPE=C3D3
545, 2726, 2696, 2747
*ELEMENT, TYPE=C3D3
546, 2546, 2595, 2578
*ELEMENT, TYPE=C3D3
547, 2564, 2546, 2514
*ELEMENT, TYPE=C3D3
548, 2578, 2595, 2628
*ELEMENT, TYPE=C3D3
549, 2546, 2578, 2524
*ELEMENT, TYPE=C3D3
550, 2514, 2546, 2498
*ELEMENT, TYPE=C3D3
551, 2578, 2628, 2612
*ELEMENT, TYPE=C3D3
552, 2524, 2578, 2559
*ELEMENT, TYPE=C3D3
553, 2498, 2546, 2524
*ELEMENT, TYPE=C3D3
554, 2612, 2628, 2659
*ELEMENT, TYPE=C3D3
555, 2559, 2578, 2612
*ELEMENT, TYPE=C3D3
556, 2498, 2524, 2475
*ELEMENT, TYPE=C3D3
557, 2659, 2628, 2676
*ELEMENT, TYPE=C3D3
558, 2475, 2524, 2510
*ELEMENT, TYPE=C3D3
559, 2498, 2475, 2448
*ELEMENT, TYPE=C3D3
560, 2510, 2524, 2559
*ELEMENT, TYPE=C3D3
561, 2475, 2510, 2466
*ELEMENT, TYPE=C3D3
562, 2448, 2475, 2428
*ELEMENT, TYPE=C3D3
563, 2510, 2559, 2545
*ELEMENT, TYPE=C3D3
564, 2466, 2510, 2497
*ELEMENT, TYPE=C3D3
565, 2428, 2475, 2466
*ELEMENT, TYPE=C3D3
566, 2545, 2559, 2593
*ELEMENT, TYPE=C3D3
567, 2497, 2510, 2545
*ELEMENT, TYPE=C3D3
568, 2428, 2466, 2415
*ELEMENT, TYPE=C3D3
569, 2593, 2559, 2612
*ELEMENT, TYPE=C3D3
570, 2415, 2466, 2449
*ELEMENT, TYPE=C3D3
571, 2428, 2415, 2379
*ELEMENT, TYPE=C3D3
572, 2449, 2466, 2497
*ELEMENT, TYPE=C3D3
573, 2415, 2449, 2395
*ELEMENT, TYPE=C3D3
574, 2379, 2415, 2366
*ELEMENT, TYPE=C3D3
575, 2449, 2497, 2479
*ELEMENT, TYPE=C3D3
576, 2395, 2449, 2432
*ELEMENT, TYPE=C3D3
577, 2366, 2415, 2395
*ELEMENT, TYPE=C3D3
578, 2479, 2497, 2528
*ELEMENT, TYPE=C3D3
579, 2432, 2449, 2479
*ELEMENT, TYPE=C3D3
580, 2366, 2395, 2345
*ELEMENT, TYPE=C3D3
581, 2528, 2497, 2545
*ELEMENT, TYPE=C3D3
582, 2345, 2395, 2384
*ELEMENT, TYPE=C3D3
583, 2366, 2345, 2313
*ELEMENT, TYPE=C3D3
584, 2384, 2395, 2432
*ELEMENT, TYPE=C3D3
585, 2345, 2384, 2335
*ELEMENT, TYPE=C3D3
586, 2313, 2345, 2296
*ELEMENT, TYPE=C3D3
587, 2384, 2432, 2419
*ELEMENT, TYPE=C3D3
588, 2335, 2384, 2369
*ELEMENT, TYPE=C3D3
589, 2296, 2345, 2335
*ELEMENT, TYPE=C3D3
590, 2419, 2432, 2469
*ELEMENT, TYPE=C3D3
591, 2369, 2384, 2419
*ELEMENT, TYPE=C3D3
592, 2296, 2335, 2286
*ELEMENT, TYPE=C3D3
593, 2469, 2432, 2479
*ELEMENT, TYPE=C3D3
594, 2286, 2335, 2319
*ELEMENT, TYPE=C3D3
595, 2296, 2286, 2246
*ELEMENT, TYPE=C3D3
596, 2319, 2335, 2369
*ELEMENT, TYPE=C3D3
597, 2286, 2319, 2268
*ELEMENT, TYPE=C3D3
598, 2246, 2286, 2232
*ELEMENT, TYPE=C3D3
599, 2319, 2369, 2354
*ELEMENT, TYPE=C3D3
600, 2268, 2319, 2303
*ELEMENT, TYPE=C3D3
601, 2232, 2286, 2268
*ELEMENT, TYPE=C3D3
602, 2354, 2369, 2402
*ELEMENT, TYPE=C3D3
603, 2303, 2319, 2354
*ELEMENT, TYPE=C3D3
604, 2232, 2268, 2217
*ELEMENT, TYPE=C3D3
605, 2402, 2369, 2419
*ELEMENT, TYPE=C3D3
606, 2217, 2268, 2255
*ELEMENT, TYPE=C3D3
607, 2232, 2217, 2182
*ELEMENT, TYPE=C3D3
608, 2255, 2268, 2303
*ELEMENT, TYPE=C3D3
609, 2217, 2255, 2204
*ELEMENT, TYPE=C3D3
610, 2182, 2217, 2164
*ELEMENT, TYPE=C3D3
611, 2255, 2303, 2292
*ELEMENT, TYPE=C3D3
612, 2204, 2255, 2241
*ELEMENT, TYPE=C3D3
613, 2164, 2217, 2204
*ELEMENT, TYPE=C3D3
614, 2292, 2303, 2343
*ELEMENT, TYPE=C3D3
615, 2241, 2255, 2292
*ELEMENT, TYPE=C3D3
616, 2164, 2204, 2155
*ELEMENT, TYPE=C3D3
617, 2343, 2303, 2354
*ELEMENT, TYPE=C3D3
618, 2155, 2204, 2193
*ELEMENT, TYPE=C3D3
619, 2164, 2155, 2113
*ELEMENT, TYPE=C3D3
620, 2193, 2204, 2241
*ELEMENT, TYPE=C3D3
621, 2155, 2193, 2142
*ELEMENT, TYPE=C3D3
622, 2113, 2155, 2104
*ELEMENT, TYPE=C3D3
623, 2193, 2241, 2233
*ELEMENT, TYPE=C3D3
624, 2142, 2193, 2183
*ELEMENT, TYPE=C3D3
625, 2104, 2155, 2142
*ELEMENT, TYPE=C3D3
626, 2233, 2241, 2284
*ELEMENT, TYPE=C3D3
627, 2183, 2193, 2233
*ELEMENT, TYPE=C3D3
628, 2104, 2142, 2092
*ELEMENT, TYPE=C3D3
629, 2284, 2241, 2292
*ELEMENT, TYPE=C3D3
630, 2092, 2142, 2131
*ELEMENT, TYPE=C3D3
631, 2104, 2092, 2052
*ELEMENT, TYPE=C3D3
632, 2131, 2142, 2183
*ELEMENT, TYPE=C3D3
633, 2092, 2131, 2080
*ELEMENT, TYPE=C3D3
634, 2052, 2092, 2041
*ELEMENT, TYPE=C3D3
635, 2131, 2183, 2168
*ELEMENT, TYPE=C3D3
636, 2080, 2131, 2120
*ELEMENT, TYPE=C3D3
637, 2041, 2092, 2080
*ELEMENT, TYPE=C3D3
638, 2168, 2183, 2219
*ELEMENT, TYPE=C3D3
639, 2120, 2131, 2168
*ELEMENT, TYPE=C3D3
640, 2041, 2080, 2028
*ELEMENT, TYPE=C3D3
641, 2219, 2183, 2233
*ELEMENT, TYPE=C3D3
642, 2028, 2080, 2072
*ELEMENT, TYPE=C3D3
643, 2041, 2028, 1990
*ELEMENT, TYPE=C3D3
644, 2072, 2080, 2120
*ELEMENT, TYPE=C3D3
645, 2028, 2072, 2022
*ELEMENT, TYPE=C3D3
646, 1990, 2028, 1976
*ELEMENT, TYPE=C3D3
647, 2072, 2120, 2112
*ELEMENT, TYPE=C3D3
648, 2022, 2072, 2060
*ELEMENT, TYPE=C3D3
649, 1976, 2028, 2022
*ELEMENT, TYPE=C3D3
650, 2112, 2120, 2162
*ELEMENT, TYPE=C3D3
651, 2060, 2072, 2112
*ELEMENT, TYPE=C3D3
652, 1976, 2022, 1971
*ELEMENT, TYPE=C3D3
653, 2162, 2120, 2168
*ELEMENT, TYPE=C3D3
654, 1971, 2022, 2015
*ELEMENT, TYPE=C3D3
655, 1976, 1971, 1925
*ELEMENT, TYPE=C3D3
656, 2015, 2022, 2060
*ELEMENT, TYPE=C3D3
657, 1971, 2015, 1964
*ELEMENT, TYPE=C3D3
658, 1925, 1971, 1920
*ELEMENT, TYPE=C3D3
659, 2015, 2060, 2057
*ELEMENT, TYPE=C3D3
660, 1964, 2015, 2006
*ELEMENT, TYPE=C3D3
661, 1920, 1971, 1964
*ELEMENT, TYPE=C3D3
662, 2057, 2060, 2105
*ELEMENT, TYPE=C3D3
663, 2006, 2015, 2057
*ELEMENT, TYPE=C3D3
664, 1920, 1964, 1914
*ELEMENT, TYPE=C3D3
665, 2105, 2060, 2112
*ELEMENT, TYPE=C3D3
666, 1914, 1964, 1956
*ELEMENT, TYPE=C3D3
667, 1920, 1914, 1867
*ELEMENT, TYPE=C3D3
668, 1956, 1964, 2006
*ELEMENT, TYPE=C3D3
669, 1914, 1956, 1905
*ELEMENT, TYPE=C3D3
670, 1867, 1914, 1863
*ELEMENT, TYPE=C3D3
671, 1956, 2006, 2000
*ELEMENT, TYPE=C3D3
672, 1905, 1956, 1951
*ELEMENT, TYPE=C3D3
673, 1863, 1914, 1905
*ELEMENT, TYPE=C3D3
674, 2000, 2006, 2051
*ELEMENT, TYPE=C3D3
675, 1951, 1956, 2000
*ELEMENT, TYPE=C3D3
676, 1863, 1905, 1855
*ELEMENT, TYPE=C3D3
677, 2051, 2006, 2057
*ELEMENT, TYPE=C3D3
678, 1855, 1905, 1900
*ELEMENT, TYPE=C3D3
679, 1863, 1855, 1810
*ELEMENT, TYPE=C3D3
680, 1900, 1905, 1951
*ELEMENT, TYPE=C3D3
681, 1855, 1900, 1849
*ELEMENT, TYPE=C3D3
682, 1810, 1855, 1806
*ELEMENT, TYPE=C3D3
683, 1900, 1951, 1945
*ELEMENT, TYPE=C3D3
684, 1849, 1900, 1897
*ELEMENT, TYPE=C3D3
685, 1806, 1855, 1849
*ELEMENT, TYPE=C3D3
686, 1945, 1951, 1995
*ELEMENT, TYPE=C3D3
687, 1897, 1900, 1945
*ELEMENT, TYPE=C3D3
688, 1806, 1849, 1800
*ELEMENT, TYPE=C3D3
689, 1995, 1951, 2000
*ELEMENT, TYPE=C3D3
690, 1800, 1849, 1846
*ELEMENT, TYPE=C3D3
691, 1806, 1800, 1753
*ELEMENT, TYPE=C3D3
692, 1846, 1849, 1897
*ELEMENT, TYPE=C3D3
693, 1800, 1846, 1796
*ELEMENT, TYPE=C3D3
694, 1753, 1800, 1749
*ELEMENT, TYPE=C3D3
695, 1846, 1897, 1893
*ELEMENT, TYPE=C3D3
696, 1796, 1846, 1839
*ELEMENT, TYPE=C3D3
697, 1749, 1800, 1796
*ELEMENT, TYPE=C3D3
698, 1893, 1897, 1942
*ELEMENT, TYPE=C3D3
699, 1839, 1846, 1893
*ELEMENT, TYPE=C3D3
700, 1749, 1796, 1750
*ELEMENT, TYPE=C3D3
701, 1942, 1897, 1945
*ELEMENT, TYPE=C3D3
702, 1750, 1796, 1793
*ELEMENT, TYPE=C3D3
703, 1749, 1750, 1695
*ELEMENT, TYPE=C3D3
704, 1793, 1796, 1839
*ELEMENT, TYPE=C3D3
705, 1750, 1793, 1766
*ELEMENT, TYPE=C3D3
706, 1695, 1750, 1693
*ELEMENT, TYPE=C3D3
707, 1793, 1839, 1822
*ELEMENT, TYPE=C3D3
708, 1693, 1750, 1766
*ELEMENT, TYPE=C3D3
709, 1695, 1693, 1643
*ELEMENT, TYPE=C3D3
710, 1643, 1693, 1647
*ELEMENT, TYPE=C3D3
711, 1695, 1643, 1646
*ELEMENT, TYPE=C3D3
712, 1646, 1643, 1595
*ELEMENT, TYPE=C3D3
713, 1695, 1646, 1699
*ELEMENT, TYPE=C3D3
714, 1595, 1643, 1593
*ELEMENT, TYPE=C3D3
715, 1646, 1595, 1599
*ELEMENT, TYPE=C3D3
716, 1699, 1646, 1653
*ELEMENT, TYPE=C3D3
717, 1593, 1643, 1647
*ELEMENT, TYPE=C3D3
718, 1599, 1595, 1540
*ELEMENT, TYPE=C3D3
719, 1653, 1646, 1599
*ELEMENT, TYPE=C3D3
720, 1540, 1595, 1537
*ELEMENT, TYPE=C3D3
721, 1599, 1540, 1544
*ELEMENT, TYPE=C3D3
722, 1537, 1595, 1593
*ELEMENT, TYPE=C3D3
723, 1540, 1537, 1481
*ELEMENT, TYPE=C3D3
724, 1544, 1540, 1485
*ELEMENT, TYPE=C3D3
725, 1537, 1593, 1521
*ELEMENT, TYPE=C3D3
726, 1481, 1537, 1476
*ELEMENT, TYPE=C3D3
727, 1485, 1540, 1481
*ELEMENT, TYPE=C3D3
728, 1476, 1537, 1521
*ELEMENT, TYPE=C3D3
729, 1481, 1476, 1419
*ELEMENT, TYPE=C3D3
730, 1485, 1481, 1423
*ELEMENT, TYPE=C3D3
731, 1419, 1448, 1381
*ELEMENT, TYPE=C3D3
732, 1481, 1419, 1423
*ELEMENT, TYPE=C3D3
733, 1423, 1419, 1360
*ELEMENT, TYPE=C3D3
734, 1360, 1419, 1354
*ELEMENT, TYPE=C3D3
735, 1423, 1360, 1363
*ELEMENT, TYPE=C3D3
736, 1354, 1419, 1381
*ELEMENT, TYPE=C3D3
737, 1360, 1354, 1298
*ELEMENT, TYPE=C3D3
738, 1363, 1360, 1301
*ELEMENT, TYPE=C3D3
739, 1298, 1354, 1314
*ELEMENT, TYPE=C3D3
740, 1360, 1298, 1301
*ELEMENT, TYPE=C3D3
741, 1301, 1298, 1240
*ELEMENT, TYPE=C3D3
742, 1240, 1298, 1236
*ELEMENT, TYPE=C3D3
743, 1301, 1240, 1243
*ELEMENT, TYPE=C3D3
744, 1236, 1298, 1314
*ELEMENT, TYPE=C3D3
745, 1240, 1236, 1181
*ELEMENT, TYPE=C3D3
746, 1243, 1240, 1186
*ELEMENT, TYPE=C3D3
747, 1181, 1236, 1178
*ELEMENT, TYPE=C3D3
748, 1240, 1181, 1186
*ELEMENT, TYPE=C3D3
749, 1186, 1181, 1130
*ELEMENT, TYPE=C3D3
750, 1130, 1181, 1124
*ELEMENT, TYPE=C3D3
751, 1186, 1130, 1134
*ELEMENT, TYPE=C3D3
752, 1124, 1181, 1178
*ELEMENT, TYPE=C3D3
753, 1130, 1124, 1071
*ELEMENT, TYPE=C3D3
754, 1134, 1130, 1074
*ELEMENT, TYPE=C3D3
755, 1071, 1124, 1048
*ELEMENT, TYPE=C3D3
756, 1130, 1071, 1074
*ELEMENT, TYPE=C3D3
757, 1074, 1071, 1019
*ELEMENT, TYPE=C3D3
758, 1019, 1071, 1016
*ELEMENT, TYPE=C3D3
759, 1074, 1019, 1026
*ELEMENT, TYPE=C3D3
760, 1016, 1071, 1048
*ELEMENT, TYPE=C3D3
761, 1019, 1016, 967
*ELEMENT, TYPE=C3D3
762, 1026, 1019, 970
*ELEMENT, TYPE=C3D3
763, 967, 1016, 989
*ELEMENT, TYPE=C3D3
764, 1019, 967, 970
*ELEMENT, TYPE=C3D3
765, 970, 967, 917
*ELEMENT, TYPE=C3D3
766, 917, 967, 915
*ELEMENT, TYPE=C3D3
767, 970, 917, 920
*ELEMENT, TYPE=C3D3
768, 915, 967, 932
*ELEMENT, TYPE=C3D3
769, 917, 915, 866
*ELEMENT, TYPE=C3D3
770, 920, 917, 868
*ELEMENT, TYPE=C3D3
771, 866, 915, 877
*ELEMENT, TYPE=C3D3
772, 917, 866, 868
*ELEMENT, TYPE=C3D3
773, 868, 866, 821
*ELEMENT, TYPE=C3D3
774, 821, 866, 818
*ELEMENT, TYPE=C3D3
775, 868, 821, 828
*ELEMENT, TYPE=C3D3
776, 818, 866, 877
*ELEMENT, TYPE=C3D3
777, 821, 818, 774
*ELEMENT, TYPE=C3D3
778, 828, 821, 776
*ELEMENT, TYPE=C3D3
779, 774, 818, 767
*ELEMENT, TYPE=C3D3
780, 821, 774, 776
*ELEMENT, TYPE=C3D3
781, 776, 774, 729
*ELEMENT, TYPE=C3D3
782, 729, 774, 725
*ELEMENT, TYPE=C3D3
783, 776, 729, 735
*ELEMENT, TYPE=C3D3
784, 725, 774, 767
*ELEMENT, TYPE=C3D3
785, 729, 725, 682
*ELEMENT, TYPE=C3D3
786, 735, 729, 687
*ELEMENT, TYPE=C3D3
787, 682, 725, 662
*ELEMENT, TYPE=C3D3
788, 729, 682, 687
*ELEMENT, TYPE=C3D3
789, 687, 682, 643
*ELEMENT, TYPE=C3D3
790, 643, 682, 641
*ELEMENT, TYPE=C3D3
791, 687, 643, 649
*ELEMENT, TYPE=C3D3
792, 641, 682, 662
*ELEMENT, TYPE=C3D3
793, 643, 641, 604
*ELEMENT, TYPE=C3D3
794, 649, 643, 606
*ELEMENT, TYPE=C3D3
795, 604, 641, 616
*ELEMENT, TYPE=C3D3
796, 643, 604, 606
*ELEMENT, TYPE=C3D3
797, 606, 604, 562
*ELEMENT, TYPE=C3D3
798, 562, 604, 561
*ELEMENT, TYPE=C3D3
799, 606, 562, 565
*ELEMENT, TYPE=C3D3
800, 561, 604, 616
*ELEMENT, TYPE=C3D3
801, 562, 561, 528
*ELEMENT, TYPE=C3D3
802, 565, 562, 527
*ELEMENT, TYPE=C3D3
803, 528, 561, 503
*ELEMENT, TYPE=C3D3
804, 562, 528, 527
*ELEMENT, TYPE=C3D3
805, 527, 528, 492
*ELEMENT, TYPE=C3D3
806, 492, 528, 503
*ELEMENT, TYPE=C3D3
807, 503, 561, 525
*ELEMENT, TYPE=C3D3
808, 527, 492, 491
*ELEMENT, TYPE=C3D3
809, 491, 492, 454
*ELEMENT, TYPE=C3D3
810, 527, 491, 533
*ELEMENT, TYPE=C3D3
811, 454, 492, 455
*ELEMENT, TYPE=C3D3
812, 533, 491, 496
*ELEMENT, TYPE=C3D3
813, 527, 533, 565
*ELEMENT, TYPE=C3D3
814, 496, 491, 458
*ELEMENT, TYPE=C3D3
815, 533, 496, 537
*ELEMENT, TYPE=C3D3
816, 565, 533, 574
*ELEMENT, TYPE=C3D3
817, 458, 491, 454
*ELEMENT, TYPE=C3D3
818, 537, 496, 505
*ELEMENT, TYPE=C3D3
819, 574, 533, 537
*ELEMENT, TYPE=C3D3
820, 505, 496, 465
*ELEMENT, TYPE=C3D3
821, 537, 505, 544
*ELEMENT, TYPE=C3D3
822, 465, 496, 458
*ELEMENT, TYPE=C3D3
823, 505, 465, 474
*ELEMENT, TYPE=C3D3
824, 544, 505, 516
*ELEMENT, TYPE=C3D3
825, 474, 465, 433
*ELEMENT, TYPE=C3D3
826, 505, 474, 516
*ELEMENT, TYPE=C3D3
827, 433, 465, 427
*ELEMENT, TYPE=C3D3
828, 516, 474, 487
*ELEMENT, TYPE=C3D3
829, 427, 465, 458
*ELEMENT, TYPE=C3D3
830, 433, 427, 396
*ELEMENT, TYPE=C3D3
831, 487, 474, 447
*ELEMENT, TYPE=C3D3
832, 396, 427, 391
*ELEMENT, TYPE=C3D3
833, 433, 396, 410
*ELEMENT, TYPE=C3D3
834, 447, 474, 433
*ELEMENT, TYPE=C3D3
835, 391, 427, 422
*ELEMENT, TYPE=C3D3
836, 410, 396, 372
*ELEMENT, TYPE=C3D3
837, 447, 433, 410
*ELEMENT, TYPE=C3D3
838, 422, 427, 458
*ELEMENT, TYPE=C3D3
839, 372, 396, 362
*ELEMENT, TYPE=C3D3
840, 422, 458, 454
*ELEMENT, TYPE=C3D3
841, 362, 396, 391
*ELEMENT, TYPE=C3D3
842, 422, 454, 416
*ELEMENT, TYPE=C3D3
843, 362, 391, 357
*ELEMENT, TYPE=C3D3
844, 416, 454, 455
*ELEMENT, TYPE=C3D3
845, 357, 391, 388
*ELEMENT, TYPE=C3D3
846, 388, 391, 422
*ELEMENT, TYPE=C3D3
847, 357, 388, 354
*ELEMENT, TYPE=C3D3
848, 388, 422, 416
*ELEMENT, TYPE=C3D3
849, 354, 388, 384
*ELEMENT, TYPE=C3D3
850, 388, 416, 384
*ELEMENT, TYPE=C3D3
851, 384, 416, 419
*ELEMENT, TYPE=C3D3
852, 419, 416, 455
*ELEMENT, TYPE=C3D3
853, 384, 399, 364
*ELEMENT, TYPE=C3D3
854, 4493, 4497, 4535
*ELEMENT, TYPE=C3D3
855, 4535, 4497, 4540
*ELEMENT, TYPE=C3D3
856, 4493, 4535, 4532
*ELEMENT, TYPE=C3D3
857, 4535, 4540, 4578
*ELEMENT, TYPE=C3D3
858, 4532, 4535, 4575
*ELEMENT, TYPE=C3D3
859, 4578, 4540, 4582
*ELEMENT, TYPE=C3D3
860, 4575, 4535, 4578
*ELEMENT, TYPE=C3D3
861, 4532, 4575, 4573
*ELEMENT, TYPE=C3D3
862, 4582, 4540, 4544
*ELEMENT, TYPE=C3D3
863, 4575, 4578, 4619
*ELEMENT, TYPE=C3D3
864, 4573, 4575, 4614
*ELEMENT, TYPE=C3D3
865, 4582, 4544, 4586
*ELEMENT, TYPE=C3D3
866, 4619, 4578, 4622
*ELEMENT, TYPE=C3D3
867, 4614, 4575, 4619
*ELEMENT, TYPE=C3D3
868, 4586, 4544, 4549
*ELEMENT, TYPE=C3D3
869, 4622, 4578, 4582
*ELEMENT, TYPE=C3D3
870, 4549, 4544, 4503
*ELEMENT, TYPE=C3D3
871, 4586, 4549, 4592
*ELEMENT, TYPE=C3D3
872, 4549, 4503, 4508
*ELEMENT, TYPE=C3D3
873, 4592, 4549, 4551
*ELEMENT, TYPE=C3D3
874, 4549, 4508, 4551
*ELEMENT, TYPE=C3D3
875, 4551, 4508, 4513
*ELEMENT, TYPE=C3D3
876, 4513, 4508, 4468
*ELEMENT, TYPE=C3D3
877, 4551, 4513, 4558
*ELEMENT, TYPE=C3D3
878, 4513, 4468, 4475
*ELEMENT, TYPE=C3D3
879, 4558, 4513, 4518
*ELEMENT, TYPE=C3D3
880, 4513, 4475, 4518
*ELEMENT, TYPE=C3D3
881, 4518, 4475, 4479
*ELEMENT, TYPE=C3D3
882, 4479, 4475, 4435
*ELEMENT, TYPE=C3D3
883, 4518, 4479, 4523
*ELEMENT, TYPE=C3D3
884, 4479, 4435, 4440
*ELEMENT, TYPE=C3D3
885, 4523, 4479, 4486
*ELEMENT, TYPE=C3D3
886, 4479, 4440, 4486
*ELEMENT, TYPE=C3D3
887, 4486, 4440, 4448
*ELEMENT, TYPE=C3D3
888, 4448, 4440, 4404
*ELEMENT, TYPE=C3D3
889, 4486, 4448, 4495
*ELEMENT, TYPE=C3D3
890, 4448, 4404, 4412
*ELEMENT, TYPE=C3D3
891, 4495, 4448, 4456
*ELEMENT, TYPE=C3D3
892, 4448, 4412, 4456
*ELEMENT, TYPE=C3D3
893, 4456, 4412, 4420
*ELEMENT, TYPE=C3D3
894, 4420, 4412, 4375
*ELEMENT, TYPE=C3D3
895, 4456, 4420, 4464
*ELEMENT, TYPE=C3D3
896, 4420, 4375, 4383
*ELEMENT, TYPE=C3D3
897, 4464, 4420, 4426
*ELEMENT, TYPE=C3D3
898, 4420, 4383, 4426
*ELEMENT, TYPE=C3D3
899, 4426, 4383, 4388
*ELEMENT, TYPE=C3D3
900, 4388, 4383, 4343
*ELEMENT, TYPE=C3D3
901, 4426, 4388, 4433
*ELEMENT, TYPE=C3D3
902, 4388, 4343, 4351
*ELEMENT, TYPE=C3D3
903, 4433, 4388, 4398
*ELEMENT, TYPE=C3D3
904, 4388, 4351, 4398
*ELEMENT, TYPE=C3D3
905, 4398, 4351, 4360
*ELEMENT, TYPE=C3D3
906, 4360, 4351, 4313
*ELEMENT, TYPE=C3D3
907, 4398, 4360, 4408
*ELEMENT, TYPE=C3D3
908, 4360, 4313, 4326
*ELEMENT, TYPE=C3D3
909, 4408, 4360, 4372
*ELEMENT, TYPE=C3D3
910, 4360, 4326, 4372
*ELEMENT, TYPE=C3D3
911, 4372, 4326, 4337
*ELEMENT, TYPE=C3D3
912, 4337, 4326, 4291
*ELEMENT, TYPE=C3D3
913, 4372, 4337, 4382
*ELEMENT, TYPE=C3D3
914, 4337, 4291, 4300
*ELEMENT, TYPE=C3D3
915, 4382, 4337, 4345
*ELEMENT, TYPE=C3D3
916, 4337, 4300, 4345
*ELEMENT, TYPE=C3D3
917, 4345, 4300, 4309
*ELEMENT, TYPE=C3D3
918, 4309, 4300, 4263
*ELEMENT, TYPE=C3D3
919, 4345, 4309, 4354
*ELEMENT, TYPE=C3D3
920, 4309, 4263, 4272
*ELEMENT, TYPE=C3D3
921, 4354, 4309, 4320
*ELEMENT, TYPE=C3D3
922, 4309, 4272, 4320
*ELEMENT, TYPE=C3D3
923, 4320, 4272, 4289
*ELEMENT, TYPE=C3D3
924, 4289, 4272, 4242
*ELEMENT, TYPE=C3D3
925, 4320, 4289, 4334
*ELEMENT, TYPE=C3D3
926, 4289, 4242, 4253
*ELEMENT, TYPE=C3D3
927, 4334, 4289, 4297
*ELEMENT, TYPE=C3D3
928, 4289, 4253, 4297
*ELEMENT, TYPE=C3D3
929, 4297, 4253, 4264
*ELEMENT, TYPE=C3D3
930, 4264, 4253, 4217
*ELEMENT, TYPE=C3D3
931, 4297, 4264, 4310
*ELEMENT, TYPE=C3D3
932, 4264, 4217, 4228
*ELEMENT, TYPE=C3D3
933, 4310, 4264, 4274
*ELEMENT, TYPE=C3D3
934, 4264, 4228, 4274
*ELEMENT, TYPE=C3D3
935, 4274, 4228, 4246
*ELEMENT, TYPE=C3D3
936, 4246, 4228, 4198
*ELEMENT, TYPE=C3D3
937, 4274, 4246, 4293
*ELEMENT, TYPE=C3D3
938, 4246, 4198, 4212
*ELEMENT, TYPE=C3D3
939, 4293, 4246, 4259
*ELEMENT, TYPE=C3D3
940, 4246, 4212, 4259
*ELEMENT, TYPE=C3D3
941, 4259, 4212, 4222
*ELEMENT, TYPE=C3D3
942, 4222, 4212, 4177
*ELEMENT, TYPE=C3D3
943, 4259, 4222, 4270
*ELEMENT, TYPE=C3D3
944, 2849, 2801, 2825
*ELEMENT, TYPE=C3D3
945, 2825, 2801, 2774
*ELEMENT, TYPE=C3D3
946, 4493, 4532, 4491
*ELEMENT, TYPE=C3D3
947, 4491, 4532, 4529
*ELEMENT, TYPE=C3D3
948, 4493, 4491, 4450
*ELEMENT, TYPE=C3D3
949, 4529, 4532, 4573
*ELEMENT, TYPE=C3D3
950, 4450, 4491, 4446
*ELEMENT, TYPE=C3D3
951, 4493, 4450, 4453
*ELEMENT, TYPE=C3D3
952, 4446, 4491, 4487
*ELEMENT, TYPE=C3D3
953, 4450, 4446, 4407
*ELEMENT, TYPE=C3D3
954, 4453, 4450, 4409
*ELEMENT, TYPE=C3D3
955, 4487, 4491, 4529
*ELEMENT, TYPE=C3D3
956, 4446, 4487, 4445
*ELEMENT, TYPE=C3D3
957, 4407, 4446, 4405
*ELEMENT, TYPE=C3D3
958, 4409, 4450, 4407
*ELEMENT, TYPE=C3D3
959, 4445, 4487, 4485
*ELEMENT, TYPE=C3D3
960, 4446, 4445, 4405
*ELEMENT, TYPE=C3D3
961, 4409, 4407, 4368
*ELEMENT, TYPE=C3D3
962, 4485, 4487, 4527
*ELEMENT, TYPE=C3D3
963, 4405, 4445, 4402
*ELEMENT, TYPE=C3D3
964, 4409, 4368, 4370
*ELEMENT, TYPE=C3D3
965, 4485, 4527, 4526
*ELEMENT, TYPE=C3D3
966, 4402, 4445, 4443
*ELEMENT, TYPE=C3D3
967, 4370, 4368, 4327
*ELEMENT, TYPE=C3D3
968, 4526, 4527, 4580
*ELEMENT, TYPE=C3D3
969, 4443, 4445, 4485
*ELEMENT, TYPE=C3D3
970, 4327, 4368, 4325
*ELEMENT, TYPE=C3D3
971, 4580, 4527, 4571
*ELEMENT, TYPE=C3D3
972, 4325, 4368, 4364
*ELEMENT, TYPE=C3D3
973, 4327, 4325, 4284
*ELEMENT, TYPE=C3D3
974, 4571, 4527, 4529
*ELEMENT, TYPE=C3D3
975, 4364, 4368, 4407
*ELEMENT, TYPE=C3D3
976, 4284, 4325, 4281
*ELEMENT, TYPE=C3D3
977, 4529, 4527, 4487
*ELEMENT, TYPE=C3D3
978, 4281, 4325, 4321
*ELEMENT, TYPE=C3D3
979, 4284, 4281, 4243
*ELEMENT, TYPE=C3D3
980, 4321, 4325, 4364
*ELEMENT, TYPE=C3D3
981, 4243, 4281, 4238
*ELEMENT, TYPE=C3D3
982, 4321, 4364, 4361
*ELEMENT, TYPE=C3D3
983, 4238, 4281, 4279
*ELEMENT, TYPE=C3D3
984, 4243, 4238, 4199
*ELEMENT, TYPE=C3D3
985, 4361, 4364, 4405
*ELEMENT, TYPE=C3D3
986, 4279, 4281, 4321
*ELEMENT, TYPE=C3D3
987, 4199, 4238, 4196
*ELEMENT, TYPE=C3D3
988, 4405, 4364, 4407
*ELEMENT, TYPE=C3D3
989, 4196, 4238, 4236
*ELEMENT, TYPE=C3D3
990, 4199, 4196, 4155
*ELEMENT, TYPE=C3D3
991, 4236, 4238, 4279
*ELEMENT, TYPE=C3D3
992, 4155, 4196, 4154
*ELEMENT, TYPE=C3D3
993, 4199, 4155, 4158
*ELEMENT, TYPE=C3D3
994, 4154, 4196, 4192
*ELEMENT, TYPE=C3D3
995, 4155, 4154, 4111
*ELEMENT, TYPE=C3D3
996, 4158, 4155, 4114
*ELEMENT, TYPE=C3D3
997, 4192, 4196, 4236
*ELEMENT, TYPE=C3D3
998, 4111, 4154, 4108
*ELEMENT, TYPE=C3D3
999, 4114, 4155, 4111
*ELEMENT, TYPE=C3D3
1000, 4108, 4154, 4152
*ELEMENT, TYPE=C3D3
1001, 4111, 4108, 4069
*ELEMENT, TYPE=C3D3
1002, 4152, 4154, 4192
*ELEMENT, TYPE=C3D3
1003, 4108, 4152, 4107
*ELEMENT, TYPE=C3D3
1004, 4069, 4108, 4066
*ELEMENT, TYPE=C3D3
1005, 4107, 4152, 4149
*ELEMENT, TYPE=C3D3
1006, 4108, 4107, 4066
*ELEMENT, TYPE=C3D3
1007, 4149, 4152, 4191
*ELEMENT, TYPE=C3D3
1008, 4066, 4107, 4064
*ELEMENT, TYPE=C3D3
1009, 4191, 4152, 4192
*ELEMENT, TYPE=C3D3
1010, 4149, 4191, 4183
*ELEMENT, TYPE=C3D3
1011, 4064, 4107, 4087
*ELEMENT, TYPE=C3D3
1012, 4279, 4321, 4319
*ELEMENT, TYPE=C3D3
1013, 4319, 4321, 4361
*ELEMENT, TYPE=C3D3
1014, 4279, 4319, 4276
*ELEMENT, TYPE=C3D3
1015, 4319, 4361, 4357
*ELEMENT, TYPE=C3D3
1016, 4276, 4319, 4318
*ELEMENT, TYPE=C3D3
1017, 4279, 4276, 4236
*ELEMENT, TYPE=C3D3
1018, 4357, 4361, 4402
*ELEMENT, TYPE=C3D3
1019, 4318, 4319, 4357
*ELEMENT, TYPE=C3D3
1020, 4236, 4276, 4235
*ELEMENT, TYPE=C3D3
1021, 4357, 4402, 4400
*ELEMENT, TYPE=C3D3
1022, 4235, 4276, 4273
*ELEMENT, TYPE=C3D3
1023, 4236, 4235, 4192
*ELEMENT, TYPE=C3D3
1024, 4400, 4402, 4443
*ELEMENT, TYPE=C3D3
1025, 4273, 4276, 4318
*ELEMENT, TYPE=C3D3
1026, 4192, 4235, 4191
*ELEMENT, TYPE=C3D3
1027, 4400, 4443, 4438
*ELEMENT, TYPE=C3D3
1028, 4191, 4235, 4232
*ELEMENT, TYPE=C3D3
1029, 4438, 4443, 4483
*ELEMENT, TYPE=C3D3
1030, 4400, 4438, 4399
*ELEMENT, TYPE=C3D3
1031, 4232, 4235, 4273
*ELEMENT, TYPE=C3D3
1032, 4483, 4443, 4485
*ELEMENT, TYPE=C3D3
1033, 4399, 4438, 4425
*ELEMENT, TYPE=C3D3
1034, 4232, 4273, 4282
*ELEMENT, TYPE=C3D3
1035, 4483, 4485, 4526
*ELEMENT, TYPE=C3D3
1036, 4483, 4526, 4521
*ELEMENT, TYPE=C3D3
1037, 4521, 4526, 4564
*ELEMENT, TYPE=C3D3
1038, 4483, 4521, 4482
*ELEMENT, TYPE=C3D3
1039, 4564, 4526, 4580
*ELEMENT, TYPE=C3D3
1040, 4482, 4542, 4520
*ELEMENT, TYPE=C3D3
1041, 4483, 4482, 4438
*ELEMENT, TYPE=C3D3
1042, 4438, 4482, 4425
*ELEMENT, TYPE=C3D3
1043, 4066, 4064, 4026
*ELEMENT, TYPE=C3D3
1044, 4026, 4064, 4040
*ELEMENT, TYPE=C3D3
1045, 4066, 4026, 4025
*ELEMENT, TYPE=C3D3
1046, 4025, 4026, 3982
*ELEMENT, TYPE=C3D3
1047, 4066, 4025, 4069
*ELEMENT, TYPE=C3D3
1048, 3982, 4026, 3980
*ELEMENT, TYPE=C3D3
1049, 4069, 4025, 4027
*ELEMENT, TYPE=C3D3
1050, 3980, 4026, 4040
*ELEMENT, TYPE=C3D3
1051, 3982, 3980, 3940
*ELEMENT, TYPE=C3D3
1052, 4027, 4025, 3986
*ELEMENT, TYPE=C3D3
1053, 3940, 3980, 3944
*ELEMENT, TYPE=C3D3
1054, 3982, 3940, 3943
*ELEMENT, TYPE=C3D3
1055, 3986, 4025, 3982
*ELEMENT, TYPE=C3D3
1056, 3943, 3940, 3899
*ELEMENT, TYPE=C3D3
1057, 3982, 3943, 3986
*ELEMENT, TYPE=C3D3
1058, 3899, 3940, 3898
*ELEMENT, TYPE=C3D3
1059, 3986, 3943, 3945
*ELEMENT, TYPE=C3D3
1060, 3898, 3940, 3944
*ELEMENT, TYPE=C3D3
1061, 3899, 3898, 3854
*ELEMENT, TYPE=C3D3
1062, 3945, 3943, 3902
*ELEMENT, TYPE=C3D3
1063, 3854, 3898, 3846
*ELEMENT, TYPE=C3D3
1064, 3899, 3854, 3859
*ELEMENT, TYPE=C3D3
1065, 3902, 3943, 3899
*ELEMENT, TYPE=C3D3
1066, 3859, 3854, 3816
*ELEMENT, TYPE=C3D3
1067, 3899, 3859, 3902
*ELEMENT, TYPE=C3D3
1068, 3816, 3854, 3815
*ELEMENT, TYPE=C3D3
1069, 3902, 3859, 3861
*ELEMENT, TYPE=C3D3
1070, 3815, 3854, 3846
*ELEMENT, TYPE=C3D3
1071, 3816, 3815, 3773
*ELEMENT, TYPE=C3D3
1072, 3861, 3859, 3817
*ELEMENT, TYPE=C3D3
1073, 3773, 3796, 3748
*ELEMENT, TYPE=C3D3
1074, 3816, 3773, 3774
*ELEMENT, TYPE=C3D3
1075, 3817, 3859, 3816
*ELEMENT, TYPE=C3D3
1076, 3774, 3773, 3732
*ELEMENT, TYPE=C3D3
1077, 3816, 3774, 3817
*ELEMENT, TYPE=C3D3
1078, 3732, 3773, 3730
*ELEMENT, TYPE=C3D3
1079, 3817, 3774, 3776
*ELEMENT, TYPE=C3D3
1080, 3730, 3773, 3748
*ELEMENT, TYPE=C3D3
1081, 3732, 3730, 3690
*ELEMENT, TYPE=C3D3
1082, 3776, 3774, 3734
*ELEMENT, TYPE=C3D3
1083, 3690, 3730, 3700
*ELEMENT, TYPE=C3D3
1084, 3732, 3690, 3689
*ELEMENT, TYPE=C3D3
1085, 3734, 3774, 3732
*ELEMENT, TYPE=C3D3
1086, 3689, 3690, 3646
*ELEMENT, TYPE=C3D3
1087, 3732, 3689, 3734
*ELEMENT, TYPE=C3D3
1088, 3646, 3690, 3644
*ELEMENT, TYPE=C3D3
1089, 3734, 3689, 3691
*ELEMENT, TYPE=C3D3
1090, 3644, 3690, 3700
*ELEMENT, TYPE=C3D3
1091, 3646, 3644, 3603
*ELEMENT, TYPE=C3D3
1092, 3691, 3689, 3648
*ELEMENT, TYPE=C3D3
1093, 3603, 3644, 3602
*ELEMENT, TYPE=C3D3
1094, 3646, 3603, 3607
*ELEMENT, TYPE=C3D3
1095, 3648, 3689, 3646
*ELEMENT, TYPE=C3D3
1096, 3607, 3603, 3562
*ELEMENT, TYPE=C3D3
1097, 3646, 3607, 3648
*ELEMENT, TYPE=C3D3
1098, 3562, 3603, 3561
*ELEMENT, TYPE=C3D3
1099, 3648, 3607, 3608
*ELEMENT, TYPE=C3D3
1100, 3561, 3603, 3602
*ELEMENT, TYPE=C3D3
1101, 3562, 3561, 3516
*ELEMENT, TYPE=C3D3
1102, 3608, 3607, 3563
*ELEMENT, TYPE=C3D3
1103, 3516, 3561, 3504
*ELEMENT, TYPE=C3D3
1104, 3562, 3516, 3520
*ELEMENT, TYPE=C3D3
1105, 3563, 3607, 3562
*ELEMENT, TYPE=C3D3
1106, 3520, 3516, 3479
*ELEMENT, TYPE=C3D3
1107, 3562, 3520, 3563
*ELEMENT, TYPE=C3D3
1108, 3479, 3516, 3478
*ELEMENT, TYPE=C3D3
1109, 3563, 3520, 3523
*ELEMENT, TYPE=C3D3
1110, 3478, 3516, 3504
*ELEMENT, TYPE=C3D3
1111, 3479, 3478, 3433
*ELEMENT, TYPE=C3D3
1112, 3523, 3520, 3480
*ELEMENT, TYPE=C3D3
1113, 3433, 3478, 3453
*ELEMENT, TYPE=C3D3
1114, 3479, 3433, 3435
*ELEMENT, TYPE=C3D3
1115, 3480, 3520, 3479
*ELEMENT, TYPE=C3D3
1116, 3435, 3433, 3392
*ELEMENT, TYPE=C3D3
1117, 3479, 3435, 3480
*ELEMENT, TYPE=C3D3
1118, 3392, 3433, 3391
*ELEMENT, TYPE=C3D3
1119, 3480, 3435, 3439
*ELEMENT, TYPE=C3D3
1120, 3391, 3433, 3405
*ELEMENT, TYPE=C3D3
1121, 3392, 3391, 3349
*ELEMENT, TYPE=C3D3
1122, 3439, 3435, 3394
*ELEMENT, TYPE=C3D3
1123, 3349, 3391, 3357
*ELEMENT, TYPE=C3D3
1124, 3392, 3349, 3350
*ELEMENT, TYPE=C3D3
1125, 3394, 3435, 3392
*ELEMENT, TYPE=C3D3
1126, 3350, 3349, 3309
*ELEMENT, TYPE=C3D3
1127, 3392, 3350, 3394
*ELEMENT, TYPE=C3D3
1128, 3309, 3349, 3307
*ELEMENT, TYPE=C3D3
1129, 3394, 3350, 3352
*ELEMENT, TYPE=C3D3
1130, 3307, 3349, 3357
*ELEMENT, TYPE=C3D3
1131, 3309, 3307, 3265
*ELEMENT, TYPE=C3D3
1132, 3352, 3350, 3311
*ELEMENT, TYPE=C3D3
1133, 3265, 3307, 3260
*ELEMENT, TYPE=C3D3
1134, 3309, 3265, 3267
*ELEMENT, TYPE=C3D3
1135, 3311, 3350, 3309
*ELEMENT, TYPE=C3D3
1136, 3267, 3265, 3223
*ELEMENT, TYPE=C3D3
1137, 3309, 3267, 3311
*ELEMENT, TYPE=C3D3
1138, 3223, 3265, 3221
*ELEMENT, TYPE=C3D3
1139, 3311, 3267, 3269
*ELEMENT, TYPE=C3D3
1140, 3221, 3265, 3260
*ELEMENT, TYPE=C3D3
1141, 3223, 3221, 3178
*ELEMENT, TYPE=C3D3
1142, 3269, 3267, 3227
*ELEMENT, TYPE=C3D3
1143, 3178, 3221, 3160
*ELEMENT, TYPE=C3D3
1144, 3223, 3178, 3181
*ELEMENT, TYPE=C3D3
1145, 3227, 3267, 3223
*ELEMENT, TYPE=C3D3
1146, 3181, 3178, 3138
*ELEMENT, TYPE=C3D3
1147, 3223, 3181, 3227
*ELEMENT, TYPE=C3D3
1148, 3138, 3178, 3136
*ELEMENT, TYPE=C3D3
1149, 3227, 3181, 3182
*ELEMENT, TYPE=C3D3
1150, 3136, 3178, 3160
*ELEMENT, TYPE=C3D3
1151, 3138, 3136, 3097
*ELEMENT, TYPE=C3D3
1152, 3182, 3181, 3139
*ELEMENT, TYPE=C3D3
1153, 3097, 3136, 3109
*ELEMENT, TYPE=C3D3
1154, 3138, 3097, 3095
*ELEMENT, TYPE=C3D3
1155, 3139, 3181, 3138
*ELEMENT, TYPE=C3D3
1156, 3095, 3097, 3051
*ELEMENT, TYPE=C3D3
1157, 3138, 3095, 3139
*ELEMENT, TYPE=C3D3
1158, 3051, 3097, 3050
*ELEMENT, TYPE=C3D3
1159, 3139, 3095, 3098
*ELEMENT, TYPE=C3D3
1160, 3050, 3097, 3109
*ELEMENT, TYPE=C3D3
1161, 3051, 3050, 3007
*ELEMENT, TYPE=C3D3
1162, 3098, 3095, 3052
*ELEMENT, TYPE=C3D3
1163, 3007, 3050, 3013
*ELEMENT, TYPE=C3D3
1164, 3051, 3007, 3010
*ELEMENT, TYPE=C3D3
1165, 3052, 3095, 3051
*ELEMENT, TYPE=C3D3
1166, 3010, 3007, 2967
*ELEMENT, TYPE=C3D3
1167, 3051, 3010, 3052
*ELEMENT, TYPE=C3D3
1168, 2967, 3007, 2966
*ELEMENT, TYPE=C3D3
1169, 3052, 3010, 3012
*ELEMENT, TYPE=C3D3
1170, 2966, 3007, 3013
*ELEMENT, TYPE=C3D3
1171, 2967, 2966, 2920
*ELEMENT, TYPE=C3D3
1172, 3012, 3010, 2968
*ELEMENT, TYPE=C3D3
1173, 2920, 2966, 2912
*ELEMENT, TYPE=C3D3
1174, 2967, 2920, 2923
*ELEMENT, TYPE=C3D3
1175, 2968, 3010, 2967
*ELEMENT, TYPE=C3D3
1176, 2923, 2920, 2879
*ELEMENT, TYPE=C3D3
1177, 2967, 2923, 2968
*ELEMENT, TYPE=C3D3
1178, 2879, 2920, 2878
*ELEMENT, TYPE=C3D3
1179, 2968, 2923, 2926
*ELEMENT, TYPE=C3D3
1180, 2878, 2920, 2912
*ELEMENT, TYPE=C3D3
1181, 2879, 2878, 2834
*ELEMENT, TYPE=C3D3
1182, 2926, 2923, 2881
*ELEMENT, TYPE=C3D3
1183, 2834, 2862, 2810
*ELEMENT, TYPE=C3D3
1184, 2879, 2834, 2835
*ELEMENT, TYPE=C3D3
1185, 2881, 2923, 2879
*ELEMENT, TYPE=C3D3
1186, 2835, 2834, 2790
*ELEMENT, TYPE=C3D3
1187, 2879, 2835, 2881
*ELEMENT, TYPE=C3D3
1188, 2790, 2834, 2788
*ELEMENT, TYPE=C3D3
1189, 2881, 2835, 2837
*ELEMENT, TYPE=C3D3
1190, 2788, 2834, 2810
*ELEMENT, TYPE=C3D3
1191, 2790, 2788, 2750
*ELEMENT, TYPE=C3D3
1192, 2837, 2835, 2793
*ELEMENT, TYPE=C3D3
1193, 2750, 2788, 2762
*ELEMENT, TYPE=C3D3
1194, 2790, 2750, 2749
*ELEMENT, TYPE=C3D3
1195, 2793, 2835, 2790
*ELEMENT, TYPE=C3D3
1196, 2749, 2750, 2704
*ELEMENT, TYPE=C3D3
1197, 2790, 2749, 2793
*ELEMENT, TYPE=C3D3
1198, 2704, 2750, 2702
*ELEMENT, TYPE=C3D3
1199, 2793, 2749, 2752
*ELEMENT, TYPE=C3D3
1200, 2702, 2750, 2762
*ELEMENT, TYPE=C3D3
1201, 2704, 2702, 2658
*ELEMENT, TYPE=C3D3
1202, 2752, 2749, 2705
*ELEMENT, TYPE=C3D3
1203, 2658, 2702, 2660
*ELEMENT, TYPE=C3D3
1204, 2704, 2658, 2661
*ELEMENT, TYPE=C3D3
1205, 2705, 2749, 2704
*ELEMENT, TYPE=C3D3
1206, 2661, 2658, 2618
*ELEMENT, TYPE=C3D3
1207, 2704, 2661, 2705
*ELEMENT, TYPE=C3D3
1208, 2618, 2658, 2617
*ELEMENT, TYPE=C3D3
1209, 2705, 2661, 2666
*ELEMENT, TYPE=C3D3
1210, 2617, 2658, 2660
*ELEMENT, TYPE=C3D3
1211, 2618, 2617, 2571
*ELEMENT, TYPE=C3D3
1212, 2666, 2661, 2620
*ELEMENT, TYPE=C3D3
1213, 2571, 2617, 2556
*ELEMENT, TYPE=C3D3
1214, 2618, 2571, 2576
*ELEMENT, TYPE=C3D3
1215, 2620, 2661, 2618
*ELEMENT, TYPE=C3D3
1216, 2576, 2571, 2527
*ELEMENT, TYPE=C3D3
1217, 2618, 2576, 2620
*ELEMENT, TYPE=C3D3
1218, 2527, 2571, 2525
*ELEMENT, TYPE=C3D3
1219, 2620, 2576, 2577
*ELEMENT, TYPE=C3D3
1220, 2525, 2571, 2556
*ELEMENT, TYPE=C3D3
1221, 2527, 2525, 2484
*ELEMENT, TYPE=C3D3
1222, 2577, 2576, 2533
*ELEMENT, TYPE=C3D3
1223, 2484, 2525, 2507
*ELEMENT, TYPE=C3D3
1224, 2527, 2484, 2486
*ELEMENT, TYPE=C3D3
1225, 2533, 2576, 2527
*ELEMENT, TYPE=C3D3
1226, 2486, 2484, 2444
*ELEMENT, TYPE=C3D3
1227, 2527, 2486, 2533
*ELEMENT, TYPE=C3D3
1228, 2444, 2484, 2441
*ELEMENT, TYPE=C3D3
1229, 2533, 2486, 2489
*ELEMENT, TYPE=C3D3
1230, 2441, 2484, 2460
*ELEMENT, TYPE=C3D3
1231, 2444, 2441, 2398
*ELEMENT, TYPE=C3D3
1232, 2489, 2486, 2446
*ELEMENT, TYPE=C3D3
1233, 2398, 2441, 2411
*ELEMENT, TYPE=C3D3
1234, 2444, 2398, 2399
*ELEMENT, TYPE=C3D3
1235, 2446, 2486, 2444
*ELEMENT, TYPE=C3D3
1236, 2399, 2398, 2353
*ELEMENT, TYPE=C3D3
1237, 2444, 2399, 2446
*ELEMENT, TYPE=C3D3
1238, 2353, 2398, 2350
*ELEMENT, TYPE=C3D3
1239, 2446, 2399, 2401
*ELEMENT, TYPE=C3D3
1240, 2350, 2398, 2411
*ELEMENT, TYPE=C3D3
1241, 2353, 2350, 2306
*ELEMENT, TYPE=C3D3
1242, 2401, 2399, 2356
*ELEMENT, TYPE=C3D3
1243, 2306, 2350, 2304
*ELEMENT, TYPE=C3D3
1244, 2353, 2306, 2310
*ELEMENT, TYPE=C3D3
1245, 2356, 2399, 2353
*ELEMENT, TYPE=C3D3
1246, 2310, 2306, 2265
*ELEMENT, TYPE=C3D3
1247, 2353, 2310, 2356
*ELEMENT, TYPE=C3D3
1248, 2265, 2306, 2264
*ELEMENT, TYPE=C3D3
1249, 2356, 2310, 2315
*ELEMENT, TYPE=C3D3
1250, 2264, 2306, 2304
*ELEMENT, TYPE=C3D3
1251, 2265, 2264, 2215
*ELEMENT, TYPE=C3D3
1252, 2315, 2310, 2267
*ELEMENT, TYPE=C3D3
1253, 2215, 2264, 2202
*ELEMENT, TYPE=C3D3
1254, 2265, 2215, 2218
*ELEMENT, TYPE=C3D3
1255, 2267, 2310, 2265
*ELEMENT, TYPE=C3D3
1256, 2218, 2215, 2172
*ELEMENT, TYPE=C3D3
1257, 2265, 2218, 2267
*ELEMENT, TYPE=C3D3
1258, 2172, 2215, 2170
*ELEMENT, TYPE=C3D3
1259, 2267, 2218, 2222
*ELEMENT, TYPE=C3D3
1260, 2170, 2215, 2202
*ELEMENT, TYPE=C3D3
1261, 2172, 2170, 2127
*ELEMENT, TYPE=C3D3
1262, 2222, 2218, 2178
*ELEMENT, TYPE=C3D3
1263, 2127, 2170, 2150
*ELEMENT, TYPE=C3D3
1264, 2172, 2127, 2128
*ELEMENT, TYPE=C3D3
1265, 2178, 2218, 2172
*ELEMENT, TYPE=C3D3
1266, 2128, 2127, 2081
*ELEMENT, TYPE=C3D3
1267, 2172, 2128, 2178
*ELEMENT, TYPE=C3D3
1268, 2081, 2127, 2079
*ELEMENT, TYPE=C3D3
1269, 2178, 2128, 2132
*ELEMENT, TYPE=C3D3
1270, 2079, 2127, 2096
*ELEMENT, TYPE=C3D3
1271, 2081, 2079, 2033
*ELEMENT, TYPE=C3D3
1272, 2132, 2128, 2084
*ELEMENT, TYPE=C3D3
1273, 2033, 2079, 2042
*ELEMENT, TYPE=C3D3
1274, 2081, 2033, 2034
*ELEMENT, TYPE=C3D3
1275, 2084, 2128, 2081
*ELEMENT, TYPE=C3D3
1276, 2034, 2033, 1989
*ELEMENT, TYPE=C3D3
1277, 2081, 2034, 2084
*ELEMENT, TYPE=C3D3
1278, 1989, 2033, 1985
*ELEMENT, TYPE=C3D3
1279, 2084, 2034, 2038
*ELEMENT, TYPE=C3D3
1280, 1985, 2033, 2042
*ELEMENT, TYPE=C3D3
1281, 1989, 1985, 1939
*ELEMENT, TYPE=C3D3
1282, 2038, 2034, 1991
*ELEMENT, TYPE=C3D3
1283, 1939, 1985, 1932
*ELEMENT, TYPE=C3D3
1284, 1989, 1939, 1942
*ELEMENT, TYPE=C3D3
1285, 1991, 2034, 1989
*ELEMENT, TYPE=C3D3
1286, 1942, 1939, 1893
*ELEMENT, TYPE=C3D3
1287, 1989, 1942, 1991
*ELEMENT, TYPE=C3D3
1288, 1893, 1939, 1890
*ELEMENT, TYPE=C3D3
1289, 1991, 1942, 1945
*ELEMENT, TYPE=C3D3
1290, 1890, 1939, 1932
*ELEMENT, TYPE=C3D3
1291, 1893, 1890, 1839
*ELEMENT, TYPE=C3D3
1292, 1991, 1945, 1995
*ELEMENT, TYPE=C3D3
1293, 1839, 1890, 1822
*ELEMENT, TYPE=C3D3
1294, 1991, 1995, 2038
*ELEMENT, TYPE=C3D3
1295, 2038, 1995, 2045
*ELEMENT, TYPE=C3D3
1296, 2045, 1995, 2000
*ELEMENT, TYPE=C3D3
1297, 2038, 2045, 2088
*ELEMENT, TYPE=C3D3
1298, 2045, 2000, 2051
*ELEMENT, TYPE=C3D3
1299, 2088, 2045, 2094
*ELEMENT, TYPE=C3D3
1300, 2045, 2051, 2094
*ELEMENT, TYPE=C3D3
1301, 2094, 2051, 2099
*ELEMENT, TYPE=C3D3
1302, 2099, 2051, 2057
*ELEMENT, TYPE=C3D3
1303, 2094, 2099, 2141
*ELEMENT, TYPE=C3D3
1304, 2099, 2057, 2105
*ELEMENT, TYPE=C3D3
1305, 2141, 2099, 2149
*ELEMENT, TYPE=C3D3
1306, 2099, 2105, 2149
*ELEMENT, TYPE=C3D3
1307, 2149, 2105, 2157
*ELEMENT, TYPE=C3D3
1308, 2157, 2105, 2112
*ELEMENT, TYPE=C3D3
1309, 2149, 2157, 2196
*ELEMENT, TYPE=C3D3
1310, 2157, 2112, 2162
*ELEMENT, TYPE=C3D3
1311, 2196, 2157, 2203
*ELEMENT, TYPE=C3D3
1312, 2157, 2162, 2203
*ELEMENT, TYPE=C3D3
1313, 2203, 2162, 2213
*ELEMENT, TYPE=C3D3
1314, 2213, 2162, 2168
*ELEMENT, TYPE=C3D3
1315, 2203, 2213, 2251
*ELEMENT, TYPE=C3D3
1316, 2213, 2168, 2219
*ELEMENT, TYPE=C3D3
1317, 2251, 2213, 2260
*ELEMENT, TYPE=C3D3
1318, 2213, 2219, 2260
*ELEMENT, TYPE=C3D3
1319, 2260, 2219, 2271
*ELEMENT, TYPE=C3D3
1320, 2271, 2219, 2233
*ELEMENT, TYPE=C3D3
1321, 2260, 2271, 2309
*ELEMENT, TYPE=C3D3
1322, 2271, 2233, 2284
*ELEMENT, TYPE=C3D3
1323, 2309, 2271, 2321
*ELEMENT, TYPE=C3D3
1324, 2271, 2284, 2321
*ELEMENT, TYPE=C3D3
1325, 2321, 2284, 2332
*ELEMENT, TYPE=C3D3
1326, 2332, 2284, 2292
*ELEMENT, TYPE=C3D3
1327, 2321, 2332, 2372
*ELEMENT, TYPE=C3D3
1328, 2332, 2292, 2343
*ELEMENT, TYPE=C3D3
1329, 2372, 2332, 2381
*ELEMENT, TYPE=C3D3
1330, 2332, 2343, 2381
*ELEMENT, TYPE=C3D3
1331, 2381, 2343, 2390
*ELEMENT, TYPE=C3D3
1332, 2390, 2343, 2354
*ELEMENT, TYPE=C3D3
1333, 2381, 2390, 2426
*ELEMENT, TYPE=C3D3
1334, 2390, 2354, 2402
*ELEMENT, TYPE=C3D3
1335, 2426, 2390, 2440
*ELEMENT, TYPE=C3D3
1336, 2390, 2402, 2440
*ELEMENT, TYPE=C3D3
1337, 2440, 2402, 2453
*ELEMENT, TYPE=C3D3
1338, 2453, 2402, 2419
*ELEMENT, TYPE=C3D3
1339, 2440, 2453, 2488
*ELEMENT, TYPE=C3D3
1340, 2453, 2419, 2469
*ELEMENT, TYPE=C3D3
1341, 2488, 2453, 2501
*ELEMENT, TYPE=C3D3
1342, 2453, 2469, 2501
*ELEMENT, TYPE=C3D3
1343, 2501, 2469, 2516
*ELEMENT, TYPE=C3D3
1344, 2516, 2469, 2479
*ELEMENT, TYPE=C3D3
1345, 2501, 2516, 2549
*ELEMENT, TYPE=C3D3
1346, 2516, 2479, 2528
*ELEMENT, TYPE=C3D3
1347, 2549, 2516, 2565
*ELEMENT, TYPE=C3D3
1348, 2516, 2528, 2565
*ELEMENT, TYPE=C3D3
1349, 2565, 2528, 2580
*ELEMENT, TYPE=C3D3
1350, 2580, 2528, 2545
*ELEMENT, TYPE=C3D3
1351, 2565, 2580, 2614
*ELEMENT, TYPE=C3D3
1352, 2580, 2545, 2593
*ELEMENT, TYPE=C3D3
1353, 2614, 2580, 2629
*ELEMENT, TYPE=C3D3
1354, 2580, 2593, 2629
*ELEMENT, TYPE=C3D3
1355, 2629, 2593, 2642
*ELEMENT, TYPE=C3D3
1356, 2642, 2593, 2612
*ELEMENT, TYPE=C3D3
1357, 2629, 2642, 2677
*ELEMENT, TYPE=C3D3
1358, 2642, 2612, 2659
*ELEMENT, TYPE=C3D3
1359, 2677, 2642, 2693
*ELEMENT, TYPE=C3D3
1360, 2642, 2659, 2693
*ELEMENT, TYPE=C3D3
1361, 2693, 2659, 2710
*ELEMENT, TYPE=C3D3
1362, 2710, 2659, 2676
*ELEMENT, TYPE=C3D3
1363, 2693, 2710, 2744
*ELEMENT, TYPE=C3D3
1364, 2710, 2676, 2726
*ELEMENT, TYPE=C3D3
1365, 2744, 2710, 2758
*ELEMENT, TYPE=C3D3
1366, 2710, 2726, 2758
*ELEMENT, TYPE=C3D3
1367, 2758, 2726, 2781
*ELEMENT, TYPE=C3D3
1368, 2781, 2726, 2747
*ELEMENT, TYPE=C3D3
1369, 2758, 2781, 2806
*ELEMENT, TYPE=C3D3
1370, 2781, 2747, 2794
*ELEMENT, TYPE=C3D3
1371, 2806, 2781, 2828
*ELEMENT, TYPE=C3D3
1372, 2781, 2794, 2828
*ELEMENT, TYPE=C3D3
1373, 2806, 2828, 2857
*ELEMENT, TYPE=C3D3
1374, 2828, 2794, 2844
*ELEMENT, TYPE=C3D3
1375, 2857, 2828, 2875
*ELEMENT, TYPE=C3D3
1376, 2806, 2857, 2840
*ELEMENT, TYPE=C3D3
1377, 2844, 2794, 2812
*ELEMENT, TYPE=C3D3
1378, 2875, 2828, 2844
*ELEMENT, TYPE=C3D3
1379, 2840, 2857, 2889
*ELEMENT, TYPE=C3D3
1380, 2875, 2844, 2892
*ELEMENT, TYPE=C3D3
1381, 2889, 2857, 2909
*ELEMENT, TYPE=C3D3
1382, 2840, 2889, 2873
*ELEMENT, TYPE=C3D3
1383, 2892, 2844, 2864
*ELEMENT, TYPE=C3D3
1384, 2909, 2857, 2875
*ELEMENT, TYPE=C3D3
1385, 2873, 2889, 2924
*ELEMENT, TYPE=C3D3
1386, 2864, 2844, 2812
*ELEMENT, TYPE=C3D3
1387, 2909, 2875, 2927
*ELEMENT, TYPE=C3D3
1388, 2924, 2889, 2935
*ELEMENT, TYPE=C3D3
1389, 2927, 2875, 2892
*ELEMENT, TYPE=C3D3
1390, 2935, 2889, 2909
*ELEMENT, TYPE=C3D3
1391, 2924, 2935, 2972
*ELEMENT, TYPE=C3D3
1392, 2935, 2909, 2958
*ELEMENT, TYPE=C3D3
1393, 2972, 2935, 2988
*ELEMENT, TYPE=C3D3
1394, 2924, 2972, 2957
*ELEMENT, TYPE=C3D3
1395, 2958, 2909, 2927
*ELEMENT, TYPE=C3D3
1396, 2988, 2935, 2958
*ELEMENT, TYPE=C3D3
1397, 2957, 2972, 3005
*ELEMENT, TYPE=C3D3
1398, 2988, 2958, 3006
*ELEMENT, TYPE=C3D3
1399, 3005, 2972, 3019
*ELEMENT, TYPE=C3D3
1400, 2957, 3005, 2990
*ELEMENT, TYPE=C3D3
1401, 3006, 2958, 2974
*ELEMENT, TYPE=C3D3
1402, 3019, 2972, 2988
*ELEMENT, TYPE=C3D3
1403, 2990, 3005, 3040
*ELEMENT, TYPE=C3D3
1404, 2974, 2958, 2927
*ELEMENT, TYPE=C3D3
1405, 3019, 2988, 3038
*ELEMENT, TYPE=C3D3
1406, 3040, 3005, 3054
*ELEMENT, TYPE=C3D3
1407, 3038, 2988, 3006
*ELEMENT, TYPE=C3D3
1408, 3054, 3005, 3019
*ELEMENT, TYPE=C3D3
1409, 3040, 3054, 3090
*ELEMENT, TYPE=C3D3
1410, 3038, 3006, 3055
*ELEMENT, TYPE=C3D3
1411, 3054, 3019, 3066
*ELEMENT, TYPE=C3D3
1412, 3090, 3054, 3101
*ELEMENT, TYPE=C3D3
1413, 3055, 3006, 3021
*ELEMENT, TYPE=C3D3
1414, 3066, 3019, 3038
*ELEMENT, TYPE=C3D3
1415, 3101, 3054, 3066
*ELEMENT, TYPE=C3D3
1416, 3021, 3006, 2974
*ELEMENT, TYPE=C3D3
1417, 3066, 3038, 3088
*ELEMENT, TYPE=C3D3
1418, 3088, 3038, 3055
*ELEMENT, TYPE=C3D3
1419, 3066, 3088, 3120
*ELEMENT, TYPE=C3D3
1420, 3088, 3055, 3104
*ELEMENT, TYPE=C3D3
1421, 3120, 3088, 3134
*ELEMENT, TYPE=C3D3
1422, 3066, 3120, 3101
*ELEMENT, TYPE=C3D3
1423, 3104, 3055, 3072
*ELEMENT, TYPE=C3D3
1424, 3134, 3088, 3104
*ELEMENT, TYPE=C3D3
1425, 3101, 3120, 3149
*ELEMENT, TYPE=C3D3
1426, 3072, 3055, 3021
*ELEMENT, TYPE=C3D3
1427, 3134, 3104, 3151
*ELEMENT, TYPE=C3D3
1428, 3149, 3120, 3170
*ELEMENT, TYPE=C3D3
1429, 3151, 3104, 3125
*ELEMENT, TYPE=C3D3
1430, 3170, 3120, 3134
*ELEMENT, TYPE=C3D3
1431, 3149, 3170, 3196
*ELEMENT, TYPE=C3D3
1432, 3125, 3104, 3072
*ELEMENT, TYPE=C3D3
1433, 3196, 3170, 3217
*ELEMENT, TYPE=C3D3
1434, 3217, 3170, 3184
*ELEMENT, TYPE=C3D3
1435, 3184, 3170, 3134
*ELEMENT, TYPE=C3D3
1436, 3217, 3184, 3233
*ELEMENT, TYPE=C3D3
1437, 3233, 3184, 3200
*ELEMENT, TYPE=C3D3
1438, 3217, 3233, 3264
*ELEMENT, TYPE=C3D3
1439, 3200, 3184, 3151
*ELEMENT, TYPE=C3D3
1440, 3217, 3264, 3249
*ELEMENT, TYPE=C3D3
1441, 3151, 3184, 3134
*ELEMENT, TYPE=C3D3
1442, 3217, 3249, 3196
*ELEMENT, TYPE=C3D3
1443, 4273, 4318, 4316
*ELEMENT, TYPE=C3D3
1444, 4316, 4318, 4362
*ELEMENT, TYPE=C3D3
1445, 4362, 4318, 4357
*ELEMENT, TYPE=C3D3
1446, 4316, 4362, 4377
*ELEMENT, TYPE=C3D3
1447, 4362, 4357, 4400
*ELEMENT, TYPE=C3D3
1448, 4362, 4400, 4399
*ELEMENT, TYPE=C3D3
1449, 4362, 4399, 4377
*ELEMENT, TYPE=C3D3
1450, 4027, 3986, 3988
*ELEMENT, TYPE=C3D3
1451, 3988, 3986, 3945
*ELEMENT, TYPE=C3D3
1452, 4027, 3988, 4030
*ELEMENT, TYPE=C3D3
1453, 3988, 3945, 3948
*ELEMENT, TYPE=C3D3
1454, 4030, 3988, 3991
*ELEMENT, TYPE=C3D3
1455, 4027, 4030, 4072
*ELEMENT, TYPE=C3D3
1456, 3948, 3945, 3904
*ELEMENT, TYPE=C3D3
1457, 3991, 3988, 3948
*ELEMENT, TYPE=C3D3
1458, 4072, 4030, 4074
*ELEMENT, TYPE=C3D3
1459, 3948, 3904, 3907
*ELEMENT, TYPE=C3D3
1460, 4074, 4030, 4034
*ELEMENT, TYPE=C3D3
1461, 4072, 4074, 4114
*ELEMENT, TYPE=C3D3
1462, 3907, 3904, 3864
*ELEMENT, TYPE=C3D3
1463, 4034, 4030, 3991
*ELEMENT, TYPE=C3D3
1464, 4114, 4074, 4118
*ELEMENT, TYPE=C3D3
1465, 3864, 3904, 3861
*ELEMENT, TYPE=C3D3
1466, 4118, 4074, 4076
*ELEMENT, TYPE=C3D3
1467, 4114, 4118, 4158
*ELEMENT, TYPE=C3D3
1468, 3861, 3904, 3902
*ELEMENT, TYPE=C3D3
1469, 4076, 4074, 4034
*ELEMENT, TYPE=C3D3
1470, 4158, 4118, 4162
*ELEMENT, TYPE=C3D3
1471, 4076, 4034, 4039
*ELEMENT, TYPE=C3D3
1472, 4162, 4118, 4122
*ELEMENT, TYPE=C3D3
1473, 4039, 4034, 3995
*ELEMENT, TYPE=C3D3
1474, 4122, 4118, 4076
*ELEMENT, TYPE=C3D3
1475, 4162, 4122, 4166
*ELEMENT, TYPE=C3D3
1476, 3995, 4034, 3991
*ELEMENT, TYPE=C3D3
1477, 4122, 4076, 4081
*ELEMENT, TYPE=C3D3
1478, 4166, 4122, 4124
*ELEMENT, TYPE=C3D3
1479, 3995, 3991, 3950
*ELEMENT, TYPE=C3D3
1480, 4081, 4076, 4039
*ELEMENT, TYPE=C3D3
1481, 4124, 4122, 4081
*ELEMENT, TYPE=C3D3
1482, 3950, 3991, 3948
*ELEMENT, TYPE=C3D3
1483, 4081, 4039, 4042
*ELEMENT, TYPE=C3D3
1484, 4124, 4081, 4085
*ELEMENT, TYPE=C3D3
1485, 3950, 3948, 3907
*ELEMENT, TYPE=C3D3
1486, 4042, 4039, 3998
*ELEMENT, TYPE=C3D3
1487, 4085, 4081, 4042
*ELEMENT, TYPE=C3D3
1488, 3998, 4039, 3995
*ELEMENT, TYPE=C3D3
1489, 4042, 3998, 4003
*ELEMENT, TYPE=C3D3
1490, 3998, 3995, 3955
*ELEMENT, TYPE=C3D3
1491, 4003, 3998, 3958
*ELEMENT, TYPE=C3D3
1492, 3955, 3995, 3950
*ELEMENT, TYPE=C3D3
1493, 3998, 3955, 3958
*ELEMENT, TYPE=C3D3
1494, 3955, 3950, 3912
*ELEMENT, TYPE=C3D3
1495, 3958, 3955, 3915
*ELEMENT, TYPE=C3D3
1496, 3912, 3950, 3907
*ELEMENT, TYPE=C3D3
1497, 3955, 3912, 3915
*ELEMENT, TYPE=C3D3
1498, 3912, 3907, 3866
*ELEMENT, TYPE=C3D3
1499, 3915, 3912, 3869
*ELEMENT, TYPE=C3D3
1500, 3866, 3907, 3864
*ELEMENT, TYPE=C3D3
1501, 3912, 3866, 3869
*ELEMENT, TYPE=C3D3
1502, 3866, 3864, 3822
*ELEMENT, TYPE=C3D3
1503, 3869, 3866, 3827
*ELEMENT, TYPE=C3D3
1504, 3822, 3864, 3820
*ELEMENT, TYPE=C3D3
1505, 3866, 3822, 3827
*ELEMENT, TYPE=C3D3
1506, 3820, 3864, 3861
*ELEMENT, TYPE=C3D3
1507, 3827, 3822, 3783
*ELEMENT, TYPE=C3D3
1508, 3820, 3861, 3817
*ELEMENT, TYPE=C3D3
1509, 3783, 3822, 3780
*ELEMENT, TYPE=C3D3
1510, 3820, 3817, 3776
*ELEMENT, TYPE=C3D3
1511, 3780, 3822, 3820
*ELEMENT, TYPE=C3D3
1512, 3783, 3780, 3738
*ELEMENT, TYPE=C3D3
1513, 3820, 3776, 3780
*ELEMENT, TYPE=C3D3
1514, 3738, 3780, 3737
*ELEMENT, TYPE=C3D3
1515, 3783, 3738, 3741
*ELEMENT, TYPE=C3D3
1516, 3780, 3776, 3737
*ELEMENT, TYPE=C3D3
1517, 3738, 3737, 3693
*ELEMENT, TYPE=C3D3
1518, 3741, 3738, 3697
*ELEMENT, TYPE=C3D3
1519, 3737, 3776, 3734
*ELEMENT, TYPE=C3D3
1520, 3738, 3693, 3697
*ELEMENT, TYPE=C3D3
1521, 3697, 3693, 3655
*ELEMENT, TYPE=C3D3
1522, 3655, 3693, 3652
*ELEMENT, TYPE=C3D3
1523, 3697, 3655, 3657
*ELEMENT, TYPE=C3D3
1524, 3652, 3693, 3691
*ELEMENT, TYPE=C3D3
1525, 3655, 3652, 3609
*ELEMENT, TYPE=C3D3
1526, 3657, 3655, 3614
*ELEMENT, TYPE=C3D3
1527, 3691, 3693, 3737
*ELEMENT, TYPE=C3D3
1528, 3609, 3652, 3608
*ELEMENT, TYPE=C3D3
1529, 3614, 3655, 3609
*ELEMENT, TYPE=C3D3
1530, 3608, 3652, 3648
*ELEMENT, TYPE=C3D3
1531, 3609, 3608, 3567
*ELEMENT, TYPE=C3D3
1532, 3648, 3652, 3691
*ELEMENT, TYPE=C3D3
1533, 3567, 3608, 3563
*ELEMENT, TYPE=C3D3
1534, 3567, 3563, 3523
*ELEMENT, TYPE=C3D3
1535, 3567, 3523, 3525
*ELEMENT, TYPE=C3D3
1536, 3525, 3523, 3482
*ELEMENT, TYPE=C3D3
1537, 3567, 3525, 3569
*ELEMENT, TYPE=C3D3
1538, 3482, 3523, 3480
*ELEMENT, TYPE=C3D3
1539, 3569, 3525, 3527
*ELEMENT, TYPE=C3D3
1540, 3567, 3569, 3609
*ELEMENT, TYPE=C3D3
1541, 3482, 3480, 3439
*ELEMENT, TYPE=C3D3
1542, 3527, 3525, 3486
*ELEMENT, TYPE=C3D3
1543, 3609, 3569, 3614
*ELEMENT, TYPE=C3D3
1544, 3486, 3525, 3482
*ELEMENT, TYPE=C3D3
1545, 3527, 3486, 3488
*ELEMENT, TYPE=C3D3
1546, 3614, 3569, 3573
*ELEMENT, TYPE=C3D3
1547, 3488, 3486, 3445
*ELEMENT, TYPE=C3D3
1548, 3573, 3569, 3527
*ELEMENT, TYPE=C3D3
1549, 3614, 3573, 3616
*ELEMENT, TYPE=C3D3
1550, 3445, 3486, 3440
*ELEMENT, TYPE=C3D3
1551, 3573, 3527, 3531
*ELEMENT, TYPE=C3D3
1552, 3616, 3573, 3575
*ELEMENT, TYPE=C3D3
1553, 3440, 3486, 3482
*ELEMENT, TYPE=C3D3
1554, 3531, 3527, 3488
*ELEMENT, TYPE=C3D3
1555, 3575, 3573, 3531
*ELEMENT, TYPE=C3D3
1556, 3531, 3488, 3492
*ELEMENT, TYPE=C3D3
1557, 3492, 3488, 3448
*ELEMENT, TYPE=C3D3
1558, 3531, 3492, 3534
*ELEMENT, TYPE=C3D3
1559, 3448, 3488, 3445
*ELEMENT, TYPE=C3D3
1560, 3534, 3492, 3496
*ELEMENT, TYPE=C3D3
1561, 3531, 3534, 3575
*ELEMENT, TYPE=C3D3
1562, 3496, 3492, 3451
*ELEMENT, TYPE=C3D3
1563, 3534, 3496, 3540
*ELEMENT, TYPE=C3D3
1564, 3575, 3534, 3579
*ELEMENT, TYPE=C3D3
1565, 3496, 3451, 3456
*ELEMENT, TYPE=C3D3
1566, 3540, 3496, 3502
*ELEMENT, TYPE=C3D3
1567, 3579, 3534, 3540
*ELEMENT, TYPE=C3D3
1568, 3456, 3451, 3411
*ELEMENT, TYPE=C3D3
1569, 3502, 3496, 3456
*ELEMENT, TYPE=C3D3
1570, 3411, 3451, 3406
*ELEMENT, TYPE=C3D3
1571, 3456, 3411, 3420
*ELEMENT, TYPE=C3D3
1572, 3406, 3451, 3448
*ELEMENT, TYPE=C3D3
1573, 3411, 3406, 3366
*ELEMENT, TYPE=C3D3
1574, 3420, 3411, 3372
*ELEMENT, TYPE=C3D3
1575, 3448, 3451, 3492
*ELEMENT, TYPE=C3D3
1576, 3366, 3406, 3363
*ELEMENT, TYPE=C3D3
1577, 3372, 3411, 3366
*ELEMENT, TYPE=C3D3
1578, 3366, 3363, 3322
*ELEMENT, TYPE=C3D3
1579, 3322, 3363, 3320
*ELEMENT, TYPE=C3D3
1580, 3366, 3322, 3324
*ELEMENT, TYPE=C3D3
1581, 3320, 3363, 3359
*ELEMENT, TYPE=C3D3
1582, 3324, 3322, 3282
*ELEMENT, TYPE=C3D3
1583, 3366, 3324, 3372
*ELEMENT, TYPE=C3D3
1584, 3359, 3363, 3404
*ELEMENT, TYPE=C3D3
1585, 3282, 3322, 3278
*ELEMENT, TYPE=C3D3
1586, 3372, 3324, 3336
*ELEMENT, TYPE=C3D3
1587, 3359, 3404, 3400
*ELEMENT, TYPE=C3D3
1588, 3278, 3322, 3320
*ELEMENT, TYPE=C3D3
1589, 3336, 3324, 3289
*ELEMENT, TYPE=C3D3
1590, 3400, 3404, 3445
*ELEMENT, TYPE=C3D3
1591, 3278, 3320, 3276
*ELEMENT, TYPE=C3D3
1592, 3289, 3324, 3282
*ELEMENT, TYPE=C3D3
1593, 3445, 3404, 3448
*ELEMENT, TYPE=C3D3
1594, 3276, 3320, 3316
*ELEMENT, TYPE=C3D3
1595, 3289, 3282, 3240
*ELEMENT, TYPE=C3D3
1596, 3448, 3404, 3406
*ELEMENT, TYPE=C3D3
1597, 3316, 3320, 3359
*ELEMENT, TYPE=C3D3
1598, 3240, 3282, 3237
*ELEMENT, TYPE=C3D3
1599, 3406, 3404, 3363
*ELEMENT, TYPE=C3D3
1600, 3316, 3359, 3356
*ELEMENT, TYPE=C3D3
1601, 3237, 3282, 3278
*ELEMENT, TYPE=C3D3
1602, 3316, 3356, 3312
*ELEMENT, TYPE=C3D3
1603, 3312, 3356, 3352
*ELEMENT, TYPE=C3D3
1604, 3316, 3312, 3273
*ELEMENT, TYPE=C3D3
1605, 3352, 3356, 3397
*ELEMENT, TYPE=C3D3
1606, 3273, 3312, 3269
*ELEMENT, TYPE=C3D3
1607, 3316, 3273, 3276
*ELEMENT, TYPE=C3D3
1608, 3397, 3356, 3400
*ELEMENT, TYPE=C3D3
1609, 3269, 3312, 3311
*ELEMENT, TYPE=C3D3
1610, 3276, 3273, 3230
*ELEMENT, TYPE=C3D3
1611, 3397, 3400, 3440
*ELEMENT, TYPE=C3D3
1612, 3311, 3312, 3352
*ELEMENT, TYPE=C3D3
1613, 3276, 3230, 3234
*ELEMENT, TYPE=C3D3
1614, 3440, 3400, 3445
*ELEMENT, TYPE=C3D3
1615, 3234, 3230, 3189
*ELEMENT, TYPE=C3D3
1616, 3189, 3230, 3187
*ELEMENT, TYPE=C3D3
1617, 3187, 3230, 3228
*ELEMENT, TYPE=C3D3
1618, 3189, 3187, 3145
*ELEMENT, TYPE=C3D3
1619, 3228, 3230, 3273
*ELEMENT, TYPE=C3D3
1620, 3145, 3187, 3144
*ELEMENT, TYPE=C3D3
1621, 3189, 3145, 3147
*ELEMENT, TYPE=C3D3
1622, 3144, 3187, 3182
*ELEMENT, TYPE=C3D3
1623, 3145, 3144, 3099
*ELEMENT, TYPE=C3D3
1624, 3147, 3145, 3102
*ELEMENT, TYPE=C3D3
1625, 3182, 3187, 3228
*ELEMENT, TYPE=C3D3
1626, 3099, 3144, 3098
*ELEMENT, TYPE=C3D3
1627, 3102, 3145, 3099
*ELEMENT, TYPE=C3D3
1628, 3098, 3144, 3139
*ELEMENT, TYPE=C3D3
1629, 3099, 3098, 3056
*ELEMENT, TYPE=C3D3
1630, 3139, 3144, 3182
*ELEMENT, TYPE=C3D3
1631, 3056, 3098, 3052
*ELEMENT, TYPE=C3D3
1632, 3056, 3052, 3012
*ELEMENT, TYPE=C3D3
1633, 3056, 3012, 3015
*ELEMENT, TYPE=C3D3
1634, 3015, 3012, 2970
*ELEMENT, TYPE=C3D3
1635, 3056, 3015, 3059
*ELEMENT, TYPE=C3D3
1636, 2970, 3012, 2968
*ELEMENT, TYPE=C3D3
1637, 3059, 3015, 3017
*ELEMENT, TYPE=C3D3
1638, 3056, 3059, 3099
*ELEMENT, TYPE=C3D3
1639, 2970, 2968, 2926
*ELEMENT, TYPE=C3D3
1640, 3017, 3015, 2973
*ELEMENT, TYPE=C3D3
1641, 3099, 3059, 3102
*ELEMENT, TYPE=C3D3
1642, 2973, 3015, 2970
*ELEMENT, TYPE=C3D3
1643, 3017, 2973, 2976
*ELEMENT, TYPE=C3D3
1644, 3102, 3059, 3062
*ELEMENT, TYPE=C3D3
1645, 2976, 2973, 2931
*ELEMENT, TYPE=C3D3
1646, 3062, 3059, 3017
*ELEMENT, TYPE=C3D3
1647, 3102, 3062, 3106
*ELEMENT, TYPE=C3D3
1648, 2931, 2973, 2929
*ELEMENT, TYPE=C3D3
1649, 3062, 3017, 3020
*ELEMENT, TYPE=C3D3
1650, 3106, 3062, 3064
*ELEMENT, TYPE=C3D3
1651, 2929, 2973, 2970
*ELEMENT, TYPE=C3D3
1652, 3020, 3017, 2976
*ELEMENT, TYPE=C3D3
1653, 3064, 3062, 3020
*ELEMENT, TYPE=C3D3
1654, 3020, 2976, 2979
*ELEMENT, TYPE=C3D3
1655, 2979, 2976, 2933
*ELEMENT, TYPE=C3D3
1656, 3020, 2979, 3024
*ELEMENT, TYPE=C3D3
1657, 2933, 2976, 2931
*ELEMENT, TYPE=C3D3
1658, 3024, 2979, 2983
*ELEMENT, TYPE=C3D3
1659, 3020, 3024, 3064
*ELEMENT, TYPE=C3D3
1660, 2983, 2979, 2937
*ELEMENT, TYPE=C3D3
1661, 3024, 2983, 3033
*ELEMENT, TYPE=C3D3
1662, 3064, 3024, 3068
*ELEMENT, TYPE=C3D3
1663, 2983, 2937, 2947
*ELEMENT, TYPE=C3D3
1664, 3033, 2983, 2994
*ELEMENT, TYPE=C3D3
1665, 3068, 3024, 3033
*ELEMENT, TYPE=C3D3
1666, 2947, 2937, 2900
*ELEMENT, TYPE=C3D3
1667, 2994, 2983, 2947
*ELEMENT, TYPE=C3D3
1668, 2900, 2937, 2894
*ELEMENT, TYPE=C3D3
1669, 2947, 2900, 2908
*ELEMENT, TYPE=C3D3
1670, 2894, 2937, 2933
*ELEMENT, TYPE=C3D3
1671, 2900, 2894, 2850
*ELEMENT, TYPE=C3D3
1672, 2908, 2900, 2861
*ELEMENT, TYPE=C3D3
1673, 2933, 2937, 2979
*ELEMENT, TYPE=C3D3
1674, 2850, 2894, 2847
*ELEMENT, TYPE=C3D3
1675, 2861, 2900, 2850
*ELEMENT, TYPE=C3D3
1676, 2850, 2847, 2807
*ELEMENT, TYPE=C3D3
1677, 2807, 2847, 2803
*ELEMENT, TYPE=C3D3
1678, 2850, 2807, 2816
*ELEMENT, TYPE=C3D3
1679, 2803, 2847, 2845
*ELEMENT, TYPE=C3D3
1680, 2816, 2807, 2769
*ELEMENT, TYPE=C3D3
1681, 2850, 2816, 2861
*ELEMENT, TYPE=C3D3
1682, 2845, 2847, 2888
*ELEMENT, TYPE=C3D3
1683, 2769, 2807, 2764
*ELEMENT, TYPE=C3D3
1684, 2861, 2816, 2824
*ELEMENT, TYPE=C3D3
1685, 2845, 2888, 2886
*ELEMENT, TYPE=C3D3
1686, 2764, 2807, 2803
*ELEMENT, TYPE=C3D3
1687, 2824, 2816, 2778
*ELEMENT, TYPE=C3D3
1688, 2886, 2888, 2931
*ELEMENT, TYPE=C3D3
1689, 2764, 2803, 2757
*ELEMENT, TYPE=C3D3
1690, 2778, 2816, 2769
*ELEMENT, TYPE=C3D3
1691, 2931, 2888, 2933
*ELEMENT, TYPE=C3D3
1692, 2757, 2803, 2799
*ELEMENT, TYPE=C3D3
1693, 2778, 2769, 2728
*ELEMENT, TYPE=C3D3
1694, 2933, 2888, 2894
*ELEMENT, TYPE=C3D3
1695, 2799, 2803, 2845
*ELEMENT, TYPE=C3D3
1696, 2728, 2769, 2722
*ELEMENT, TYPE=C3D3
1697, 2894, 2888, 2847
*ELEMENT, TYPE=C3D3
1698, 2799, 2845, 2839
*ELEMENT, TYPE=C3D3
1699, 2722, 2769, 2764
*ELEMENT, TYPE=C3D3
1700, 2799, 2839, 2797
*ELEMENT, TYPE=C3D3
1701, 2797, 2839, 2837
*ELEMENT, TYPE=C3D3
1702, 2799, 2797, 2754
*ELEMENT, TYPE=C3D3
1703, 2837, 2839, 2884
*ELEMENT, TYPE=C3D3
1704, 2754, 2797, 2752
*ELEMENT, TYPE=C3D3
1705, 2799, 2754, 2757
*ELEMENT, TYPE=C3D3
1706, 2884, 2839, 2886
*ELEMENT, TYPE=C3D3
1707, 2752, 2797, 2793
*ELEMENT, TYPE=C3D3
1708, 2757, 2754, 2715
*ELEMENT, TYPE=C3D3
1709, 2884, 2886, 2929
*ELEMENT, TYPE=C3D3
1710, 2793, 2797, 2837
*ELEMENT, TYPE=C3D3
1711, 2757, 2715, 2719
*ELEMENT, TYPE=C3D3
1712, 2929, 2886, 2931
*ELEMENT, TYPE=C3D3
1713, 2719, 2715, 2671
*ELEMENT, TYPE=C3D3
1714, 2757, 2719, 2764
*ELEMENT, TYPE=C3D3
1715, 2671, 2715, 2668
*ELEMENT, TYPE=C3D3
1716, 2764, 2719, 2722
*ELEMENT, TYPE=C3D3
1717, 2668, 2715, 2709
*ELEMENT, TYPE=C3D3
1718, 2671, 2668, 2626
*ELEMENT, TYPE=C3D3
1719, 2722, 2719, 2674
*ELEMENT, TYPE=C3D3
1720, 2709, 2715, 2754
*ELEMENT, TYPE=C3D3
1721, 2626, 2668, 2622
*ELEMENT, TYPE=C3D3
1722, 2674, 2719, 2671
*ELEMENT, TYPE=C3D3
1723, 2709, 2754, 2752
*ELEMENT, TYPE=C3D3
1724, 2622, 2668, 2666
*ELEMENT, TYPE=C3D3
1725, 2674, 2671, 2631
*ELEMENT, TYPE=C3D3
1726, 2666, 2668, 2709
*ELEMENT, TYPE=C3D3
1727, 2622, 2666, 2620
*ELEMENT, TYPE=C3D3
1728, 2631, 2671, 2626
*ELEMENT, TYPE=C3D3
1729, 2666, 2709, 2705
*ELEMENT, TYPE=C3D3
1730, 2631, 2626, 2585
*ELEMENT, TYPE=C3D3
1731, 2705, 2709, 2752
*ELEMENT, TYPE=C3D3
1732, 2585, 2626, 2582
*ELEMENT, TYPE=C3D3
1733, 2631, 2585, 2589
*ELEMENT, TYPE=C3D3
1734, 2582, 2626, 2622
*ELEMENT, TYPE=C3D3
1735, 2589, 2585, 2544
*ELEMENT, TYPE=C3D3
1736, 2582, 2622, 2577
*ELEMENT, TYPE=C3D3
1737, 2544, 2585, 2540
*ELEMENT, TYPE=C3D3
1738, 2577, 2622, 2620
*ELEMENT, TYPE=C3D3
1739, 2582, 2577, 2538
*ELEMENT, TYPE=C3D3
1740, 2540, 2585, 2582
*ELEMENT, TYPE=C3D3
1741, 2538, 2577, 2533
*ELEMENT, TYPE=C3D3
1742, 2540, 2582, 2538
*ELEMENT, TYPE=C3D3
1743, 2538, 2533, 2489
*ELEMENT, TYPE=C3D3
1744, 2540, 2538, 2494
*ELEMENT, TYPE=C3D3
1745, 2538, 2489, 2494
*ELEMENT, TYPE=C3D3
1746, 2494, 2489, 2450
*ELEMENT, TYPE=C3D3
1747, 2450, 2489, 2446
*ELEMENT, TYPE=C3D3
1748, 2494, 2450, 2452
*ELEMENT, TYPE=C3D3
1749, 2452, 2450, 2406
*ELEMENT, TYPE=C3D3
1750, 2494, 2452, 2499
*ELEMENT, TYPE=C3D3
1751, 2406, 2450, 2401
*ELEMENT, TYPE=C3D3
1752, 2499, 2452, 2457
*ELEMENT, TYPE=C3D3
1753, 2401, 2450, 2446
*ELEMENT, TYPE=C3D3
1754, 2457, 2452, 2412
*ELEMENT, TYPE=C3D3
1755, 2499, 2457, 2502
*ELEMENT, TYPE=C3D3
1756, 2412, 2452, 2406
*ELEMENT, TYPE=C3D3
1757, 2502, 2457, 2465
*ELEMENT, TYPE=C3D3
1758, 2412, 2406, 2368
*ELEMENT, TYPE=C3D3
1759, 2465, 2457, 2417
*ELEMENT, TYPE=C3D3
1760, 2368, 2406, 2361
*ELEMENT, TYPE=C3D3
1761, 2412, 2368, 2371
*ELEMENT, TYPE=C3D3
1762, 2417, 2457, 2412
*ELEMENT, TYPE=C3D3
1763, 2361, 2406, 2401
*ELEMENT, TYPE=C3D3
1764, 2371, 2368, 2322
*ELEMENT, TYPE=C3D3
1765, 2361, 2401, 2356
*ELEMENT, TYPE=C3D3
1766, 2322, 2368, 2318
*ELEMENT, TYPE=C3D3
1767, 2371, 2322, 2327
*ELEMENT, TYPE=C3D3
1768, 2361, 2356, 2315
*ELEMENT, TYPE=C3D3
1769, 2318, 2368, 2361
*ELEMENT, TYPE=C3D3
1770, 2327, 2322, 2281
*ELEMENT, TYPE=C3D3
1771, 2361, 2315, 2318
*ELEMENT, TYPE=C3D3
1772, 2281, 2322, 2273
*ELEMENT, TYPE=C3D3
1773, 2318, 2315, 2270
*ELEMENT, TYPE=C3D3
1774, 2273, 2322, 2318
*ELEMENT, TYPE=C3D3
1775, 2281, 2273, 2234
*ELEMENT, TYPE=C3D3
1776, 2270, 2315, 2267
*ELEMENT, TYPE=C3D3
1777, 2273, 2318, 2270
*ELEMENT, TYPE=C3D3
1778, 2234, 2273, 2228
*ELEMENT, TYPE=C3D3
1779, 2270, 2267, 2222
*ELEMENT, TYPE=C3D3
1780, 2273, 2270, 2228
*ELEMENT, TYPE=C3D3
1781, 2228, 2270, 2222
*ELEMENT, TYPE=C3D3
1782, 2228, 2222, 2181
*ELEMENT, TYPE=C3D3
1783, 2181, 2222, 2178
*ELEMENT, TYPE=C3D3
1784, 2228, 2181, 2185
*ELEMENT, TYPE=C3D3
1785, 2181, 2178, 2132
*ELEMENT, TYPE=C3D3
1786, 2185, 2181, 2136
*ELEMENT, TYPE=C3D3
1787, 2228, 2185, 2234
*ELEMENT, TYPE=C3D3
1788, 2136, 2181, 2132
*ELEMENT, TYPE=C3D3
1789, 2185, 2136, 2141
*ELEMENT, TYPE=C3D3
1790, 2234, 2185, 2190
*ELEMENT, TYPE=C3D3
1791, 2136, 2132, 2088
*ELEMENT, TYPE=C3D3
1792, 2141, 2136, 2094
*ELEMENT, TYPE=C3D3
1793, 2190, 2185, 2141
*ELEMENT, TYPE=C3D3
1794, 2088, 2132, 2084
*ELEMENT, TYPE=C3D3
1795, 2094, 2136, 2088
*ELEMENT, TYPE=C3D3
1796, 2088, 2084, 2038
*ELEMENT, TYPE=C3D3
1797, 3904, 3945, 3902
*ELEMENT, TYPE=C3D3
1798, 4162, 4166, 4204
*ELEMENT, TYPE=C3D3
1799, 4204, 4166, 4209
*ELEMENT, TYPE=C3D3
1800, 4162, 4204, 4201
*ELEMENT, TYPE=C3D3
1801, 4209, 4166, 4168
*ELEMENT, TYPE=C3D3
1802, 4201, 4204, 4245
*ELEMENT, TYPE=C3D3
1803, 4168, 4166, 4124
*ELEMENT, TYPE=C3D3
1804, 4245, 4204, 4250
*ELEMENT, TYPE=C3D3
1805, 4201, 4245, 4243
*ELEMENT, TYPE=C3D3
1806, 4250, 4204, 4209
*ELEMENT, TYPE=C3D3
1807, 4245, 4250, 4288
*ELEMENT, TYPE=C3D3
1808, 4243, 4245, 4284
*ELEMENT, TYPE=C3D3
1809, 4288, 4250, 4292
*ELEMENT, TYPE=C3D3
1810, 4245, 4288, 4284
*ELEMENT, TYPE=C3D3
1811, 4292, 4250, 4251
*ELEMENT, TYPE=C3D3
1812, 4284, 4288, 4327
*ELEMENT, TYPE=C3D3
1813, 4251, 4250, 4209
*ELEMENT, TYPE=C3D3
1814, 4292, 4251, 4295
*ELEMENT, TYPE=C3D3
1815, 4327, 4288, 4331
*ELEMENT, TYPE=C3D3
1816, 4295, 4251, 4257
*ELEMENT, TYPE=C3D3
1817, 4292, 4295, 4336
*ELEMENT, TYPE=C3D3
1818, 4331, 4288, 4292
*ELEMENT, TYPE=C3D3
1819, 4257, 4251, 4213
*ELEMENT, TYPE=C3D3
1820, 4336, 4295, 4340
*ELEMENT, TYPE=C3D3
1821, 4331, 4292, 4336
*ELEMENT, TYPE=C3D3
1822, 4213, 4251, 4209
*ELEMENT, TYPE=C3D3
1823, 4340, 4295, 4298
*ELEMENT, TYPE=C3D3
1824, 4213, 4209, 4168
*ELEMENT, TYPE=C3D3
1825, 4298, 4295, 4257
*ELEMENT, TYPE=C3D3
1826, 4213, 4168, 4171
*ELEMENT, TYPE=C3D3
1827, 4298, 4257, 4260
*ELEMENT, TYPE=C3D3
1828, 4171, 4168, 4129
*ELEMENT, TYPE=C3D3
1829, 4213, 4171, 4215
*ELEMENT, TYPE=C3D3
1830, 4260, 4257, 4215
*ELEMENT, TYPE=C3D3
1831, 4129, 4168, 4124
*ELEMENT, TYPE=C3D3
1832, 4215, 4171, 4176
*ELEMENT, TYPE=C3D3
1833, 4215, 4257, 4213
*ELEMENT, TYPE=C3D3
1834, 4176, 4171, 4132
*ELEMENT, TYPE=C3D3
1835, 4215, 4176, 4220
*ELEMENT, TYPE=C3D3
1836, 4176, 4132, 4138
*ELEMENT, TYPE=C3D3
1837, 4220, 4176, 4180
*ELEMENT, TYPE=C3D3
1838, 4138, 4132, 4093
*ELEMENT, TYPE=C3D3
1839, 4176, 4138, 4180
*ELEMENT, TYPE=C3D3
1840, 4093, 4132, 4088
*ELEMENT, TYPE=C3D3
1841, 4180, 4138, 4143
*ELEMENT, TYPE=C3D3
1842, 4088, 4132, 4129
*ELEMENT, TYPE=C3D3
1843, 4093, 4088, 4049
*ELEMENT, TYPE=C3D3
1844, 4143, 4138, 4098
*ELEMENT, TYPE=C3D3
1845, 4129, 4132, 4171
*ELEMENT, TYPE=C3D3
1846, 4049, 4088, 4046
*ELEMENT, TYPE=C3D3
1847, 4098, 4138, 4093
*ELEMENT, TYPE=C3D3
1848, 4046, 4088, 4085
*ELEMENT, TYPE=C3D3
1849, 4049, 4046, 4006
*ELEMENT, TYPE=C3D3
1850, 4085, 4088, 4129
*ELEMENT, TYPE=C3D3
1851, 4046, 4085, 4042
*ELEMENT, TYPE=C3D3
1852, 4006, 4046, 4003
*ELEMENT, TYPE=C3D3
1853, 4085, 4129, 4124
*ELEMENT, TYPE=C3D3
1854, 4046, 4042, 4003
*ELEMENT, TYPE=C3D3
1855, 4340, 4298, 4342
*ELEMENT, TYPE=C3D3
1856, 4342, 4298, 4304
*ELEMENT, TYPE=C3D3
1857, 4340, 4342, 4384
*ELEMENT, TYPE=C3D3
1858, 4304, 4298, 4260
*ELEMENT, TYPE=C3D3
1859, 4384, 4342, 4387
*ELEMENT, TYPE=C3D3
1860, 4340, 4384, 4376
*ELEMENT, TYPE=C3D3
1861, 4304, 4260, 4265
*ELEMENT, TYPE=C3D3
1862, 4387, 4342, 4349
*ELEMENT, TYPE=C3D3
1863, 4376, 4384, 4421
*ELEMENT, TYPE=C3D3
1864, 4265, 4260, 4220
*ELEMENT, TYPE=C3D3
1865, 4349, 4342, 4304
*ELEMENT, TYPE=C3D3
1866, 4220, 4260, 4215
*ELEMENT, TYPE=C3D3
1867, 4349, 4304, 4308
*ELEMENT, TYPE=C3D3
1868, 4308, 4304, 4265
*ELEMENT, TYPE=C3D3
1869, 4349, 4308, 4353
*ELEMENT, TYPE=C3D3
1870, 4353, 4308, 4311
*ELEMENT, TYPE=C3D3
1871, 4311, 4308, 4267
*ELEMENT, TYPE=C3D3
1872, 4267, 4308, 4265
*ELEMENT, TYPE=C3D3
1873, 4311, 4267, 4275
*ELEMENT, TYPE=C3D3
1874, 4275, 4267, 4229
*ELEMENT, TYPE=C3D3
1875, 4311, 4275, 4322
*ELEMENT, TYPE=C3D3
1876, 4229, 4267, 4225
*ELEMENT, TYPE=C3D3
1877, 4322, 4275, 4285
*ELEMENT, TYPE=C3D3
1878, 4229, 4225, 4185
*ELEMENT, TYPE=C3D3
1879, 4285, 4275, 4240
*ELEMENT, TYPE=C3D3
1880, 4229, 4185, 4194
*ELEMENT, TYPE=C3D3
1881, 4240, 4275, 4229
*ELEMENT, TYPE=C3D3
1882, 4194, 4185, 4147
*ELEMENT, TYPE=C3D3
1883, 4229, 4194, 4240
*ELEMENT, TYPE=C3D3
1884, 4147, 4185, 4143
*ELEMENT, TYPE=C3D3
1885, 4194, 4147, 4157
*ELEMENT, TYPE=C3D3
1886, 4240, 4194, 4203
*ELEMENT, TYPE=C3D3
1887, 4147, 4143, 4103
*ELEMENT, TYPE=C3D3
1888, 4157, 4147, 4110
*ELEMENT, TYPE=C3D3
1889, 4203, 4194, 4157
*ELEMENT, TYPE=C3D3
1890, 4103, 4143, 4098
*ELEMENT, TYPE=C3D3
1891, 4110, 4147, 4103
*ELEMENT, TYPE=C3D3
1892, 4203, 4157, 4167
*ELEMENT, TYPE=C3D3
1893, 4110, 4103, 4065
*ELEMENT, TYPE=C3D3
1894, 4167, 4157, 4121
*ELEMENT, TYPE=C3D3
1895, 4203, 4167, 4211
*ELEMENT, TYPE=C3D3
1896, 4065, 4103, 4058
*ELEMENT, TYPE=C3D3
1897, 4121, 4157, 4110
*ELEMENT, TYPE=C3D3
1898, 4211, 4167, 4172
*ELEMENT, TYPE=C3D3
1899, 4058, 4103, 4098
*ELEMENT, TYPE=C3D3
1900, 4172, 4167, 4127
*ELEMENT, TYPE=C3D3
1901, 4211, 4172, 4216
*ELEMENT, TYPE=C3D3
1902, 4127, 4167, 4121
*ELEMENT, TYPE=C3D3
1903, 4172, 4127, 4133
*ELEMENT, TYPE=C3D3
1904, 4216, 4172, 4178
*ELEMENT, TYPE=C3D3
1905, 4133, 4127, 4089
*ELEMENT, TYPE=C3D3
1906, 4172, 4133, 4178
*ELEMENT, TYPE=C3D3
1907, 4089, 4127, 4083
*ELEMENT, TYPE=C3D3
1908, 4178, 4133, 4141
*ELEMENT, TYPE=C3D3
1909, 4083, 4127, 4121
*ELEMENT, TYPE=C3D3
1910, 4089, 4083, 4044
*ELEMENT, TYPE=C3D3
1911, 4141, 4133, 4096
*ELEMENT, TYPE=C3D3
1912, 4044, 4083, 4038
*ELEMENT, TYPE=C3D3
1913, 4089, 4044, 4051
*ELEMENT, TYPE=C3D3
1914, 4096, 4133, 4089
*ELEMENT, TYPE=C3D3
1915, 4038, 4083, 4075
*ELEMENT, TYPE=C3D3
1916, 4051, 4044, 4007
*ELEMENT, TYPE=C3D3
1917, 4096, 4089, 4051
*ELEMENT, TYPE=C3D3
1918, 4075, 4083, 4121
*ELEMENT, TYPE=C3D3
1919, 4007, 4044, 4001
*ELEMENT, TYPE=C3D3
1920, 4075, 4121, 4110
*ELEMENT, TYPE=C3D3
1921, 4001, 4044, 4038
*ELEMENT, TYPE=C3D3
1922, 4075, 4110, 4065
*ELEMENT, TYPE=C3D3
1923, 4075, 4065, 4028
*ELEMENT, TYPE=C3D3
1924, 4028, 4065, 4020
*ELEMENT, TYPE=C3D3
1925, 4075, 4028, 4038
*ELEMENT, TYPE=C3D3
1926, 4020, 4065, 4058
*ELEMENT, TYPE=C3D3
1927, 4038, 4028, 3993
*ELEMENT, TYPE=C3D3
1928, 4020, 4058, 4015
*ELEMENT, TYPE=C3D3
1929, 3993, 4028, 3981
*ELEMENT, TYPE=C3D3
1930, 4015, 4058, 4053
*ELEMENT, TYPE=C3D3
1931, 4020, 4015, 3976
*ELEMENT, TYPE=C3D3
1932, 3981, 4028, 4020
*ELEMENT, TYPE=C3D3
1933, 4053, 4058, 4098
*ELEMENT, TYPE=C3D3
1934, 3976, 4015, 3971
*ELEMENT, TYPE=C3D3
1935, 4053, 4098, 4093
*ELEMENT, TYPE=C3D3
1936, 3971, 4015, 4011
*ELEMENT, TYPE=C3D3
1937, 4053, 4093, 4049
*ELEMENT, TYPE=C3D3
1938, 4011, 4015, 4053
*ELEMENT, TYPE=C3D3
1939, 4053, 4049, 4011
*ELEMENT, TYPE=C3D3
1940, 4011, 4049, 4006
*ELEMENT, TYPE=C3D3
1941, 4011, 4006, 3966
*ELEMENT, TYPE=C3D3
1942, 3966, 4006, 3960
*ELEMENT, TYPE=C3D3
1943, 4011, 3966, 3971
*ELEMENT, TYPE=C3D3
1944, 3960, 4006, 4003
*ELEMENT, TYPE=C3D3
1945, 3966, 3960, 3921
*ELEMENT, TYPE=C3D3
1946, 3971, 3966, 3926
*ELEMENT, TYPE=C3D3
1947, 3921, 3960, 3919
*ELEMENT, TYPE=C3D3
1948, 3966, 3921, 3926
*ELEMENT, TYPE=C3D3
1949, 3919, 3960, 3958
*ELEMENT, TYPE=C3D3
1950, 3926, 3921, 3882
*ELEMENT, TYPE=C3D3
1951, 3958, 3960, 4003
*ELEMENT, TYPE=C3D3
1952, 3919, 3958, 3915
*ELEMENT, TYPE=C3D3
1953, 3882, 3921, 3877
*ELEMENT, TYPE=C3D3
1954, 3919, 3915, 3874
*ELEMENT, TYPE=C3D3
1955, 3877, 3921, 3919
*ELEMENT, TYPE=C3D3
1956, 3874, 3915, 3869
*ELEMENT, TYPE=C3D3
1957, 3919, 3874, 3877
*ELEMENT, TYPE=C3D3
1958, 3874, 3869, 3831
*ELEMENT, TYPE=C3D3
1959, 3877, 3874, 3833
*ELEMENT, TYPE=C3D3
1960, 3874, 3831, 3833
*ELEMENT, TYPE=C3D3
1961, 3833, 3831, 3789
*ELEMENT, TYPE=C3D3
1962, 3789, 3831, 3785
*ELEMENT, TYPE=C3D3
1963, 3833, 3789, 3792
*ELEMENT, TYPE=C3D3
1964, 3785, 3831, 3827
*ELEMENT, TYPE=C3D3
1965, 3789, 3785, 3744
*ELEMENT, TYPE=C3D3
1966, 3792, 3789, 3749
*ELEMENT, TYPE=C3D3
1967, 3827, 3831, 3869
*ELEMENT, TYPE=C3D3
1968, 3744, 3785, 3741
*ELEMENT, TYPE=C3D3
1969, 3749, 3789, 3744
*ELEMENT, TYPE=C3D3
1970, 3741, 3785, 3783
*ELEMENT, TYPE=C3D3
1971, 3744, 3741, 3702
*ELEMENT, TYPE=C3D3
1972, 3783, 3785, 3827
*ELEMENT, TYPE=C3D3
1973, 3702, 3741, 3697
*ELEMENT, TYPE=C3D3
1974, 3702, 3697, 3657
*ELEMENT, TYPE=C3D3
1975, 3702, 3657, 3661
*ELEMENT, TYPE=C3D3
1976, 3661, 3657, 3616
*ELEMENT, TYPE=C3D3
1977, 3702, 3661, 3704
*ELEMENT, TYPE=C3D3
1978, 3616, 3657, 3614
*ELEMENT, TYPE=C3D3
1979, 3704, 3661, 3663
*ELEMENT, TYPE=C3D3
1980, 3663, 3661, 3619
*ELEMENT, TYPE=C3D3
1981, 3704, 3663, 3708
*ELEMENT, TYPE=C3D3
1982, 3619, 3661, 3616
*ELEMENT, TYPE=C3D3
1983, 3708, 3663, 3671
*ELEMENT, TYPE=C3D3
1984, 3619, 3616, 3575
*ELEMENT, TYPE=C3D3
1985, 3671, 3663, 3624
*ELEMENT, TYPE=C3D3
1986, 3619, 3575, 3579
*ELEMENT, TYPE=C3D3
1987, 3624, 3663, 3619
*ELEMENT, TYPE=C3D3
1988, 3619, 3579, 3624
*ELEMENT, TYPE=C3D3
1989, 3624, 3579, 3586
*ELEMENT, TYPE=C3D3
1990, 3586, 3579, 3540
*ELEMENT, TYPE=C3D3
1991, 3624, 3586, 3631
*ELEMENT, TYPE=C3D3
1992, 3586, 3540, 3548
*ELEMENT, TYPE=C3D3
1993, 3631, 3586, 3592
*ELEMENT, TYPE=C3D3
1994, 3548, 3540, 3502
*ELEMENT, TYPE=C3D3
1995, 3586, 3548, 3592
*ELEMENT, TYPE=C3D3
1996, 3592, 3548, 3553
*ELEMENT, TYPE=C3D3
1997, 3553, 3548, 3509
*ELEMENT, TYPE=C3D3
1998, 3592, 3553, 3597
*ELEMENT, TYPE=C3D3
1999, 3509, 3548, 3502
*ELEMENT, TYPE=C3D3
2000, 3553, 3509, 3514
*ELEMENT, TYPE=C3D3
2001, 3597, 3553, 3559
*ELEMENT, TYPE=C3D3
2002, 3514, 3509, 3469
*ELEMENT, TYPE=C3D3
2003, 3553, 3514, 3559
*ELEMENT, TYPE=C3D3
2004, 3469, 3509, 3465
*ELEMENT, TYPE=C3D3
2005, 3559, 3514, 3521
*ELEMENT, TYPE=C3D3
2006, 3465, 3509, 3502
*ELEMENT, TYPE=C3D3
2007, 3469, 3465, 3425
*ELEMENT, TYPE=C3D3
2008, 3521, 3514, 3475
*ELEMENT, TYPE=C3D3
2009, 3465, 3502, 3456
*ELEMENT, TYPE=C3D3
2010, 3425, 3465, 3420
*ELEMENT, TYPE=C3D3
2011, 3475, 3514, 3469
*ELEMENT, TYPE=C3D3
2012, 3420, 3465, 3456
*ELEMENT, TYPE=C3D3
2013, 3425, 3420, 3379
*ELEMENT, TYPE=C3D3
2014, 3475, 3469, 3431
*ELEMENT, TYPE=C3D3
2015, 3379, 3420, 3372
*ELEMENT, TYPE=C3D3
2016, 3431, 3469, 3425
*ELEMENT, TYPE=C3D3
2017, 3475, 3431, 3438
*ELEMENT, TYPE=C3D3
2018, 3379, 3372, 3336
*ELEMENT, TYPE=C3D3
2019, 3431, 3425, 3385
*ELEMENT, TYPE=C3D3
2020, 3438, 3431, 3390
*ELEMENT, TYPE=C3D3
2021, 3379, 3336, 3340
*ELEMENT, TYPE=C3D3
2022, 3385, 3425, 3379
*ELEMENT, TYPE=C3D3
2023, 3390, 3431, 3385
*ELEMENT, TYPE=C3D3
2024, 3340, 3336, 3295
*ELEMENT, TYPE=C3D3
2025, 3385, 3379, 3340
*ELEMENT, TYPE=C3D3
2026, 3295, 3336, 3289
*ELEMENT, TYPE=C3D3
2027, 3340, 3295, 3302
*ELEMENT, TYPE=C3D3
2028, 3295, 3289, 3251
*ELEMENT, TYPE=C3D3
2029, 3302, 3295, 3257
*ELEMENT, TYPE=C3D3
2030, 3251, 3289, 3240
*ELEMENT, TYPE=C3D3
2031, 3295, 3251, 3257
*ELEMENT, TYPE=C3D3
2032, 3251, 3240, 3205
*ELEMENT, TYPE=C3D3
2033, 3257, 3251, 3211
*ELEMENT, TYPE=C3D3
2034, 3205, 3240, 3194
*ELEMENT, TYPE=C3D3
2035, 3251, 3205, 3211
*ELEMENT, TYPE=C3D3
2036, 3194, 3240, 3237
*ELEMENT, TYPE=C3D3
2037, 3211, 3205, 3166
*ELEMENT, TYPE=C3D3
2038, 3194, 3237, 3192
*ELEMENT, TYPE=C3D3
2039, 3166, 3205, 3154
*ELEMENT, TYPE=C3D3
2040, 3211, 3166, 3173
*ELEMENT, TYPE=C3D3
2041, 3192, 3237, 3234
*ELEMENT, TYPE=C3D3
2042, 3154, 3205, 3194
*ELEMENT, TYPE=C3D3
2043, 3173, 3166, 3127
*ELEMENT, TYPE=C3D3
2044, 3234, 3237, 3278
*ELEMENT, TYPE=C3D3
2045, 3127, 3166, 3117
*ELEMENT, TYPE=C3D3
2046, 3173, 3127, 3132
*ELEMENT, TYPE=C3D3
2047, 3234, 3278, 3276
*ELEMENT, TYPE=C3D3
2048, 3117, 3166, 3154
*ELEMENT, TYPE=C3D3
2049, 3132, 3127, 3087
*ELEMENT, TYPE=C3D3
2050, 3117, 3154, 3110
*ELEMENT, TYPE=C3D3
2051, 3087, 3127, 3079
*ELEMENT, TYPE=C3D3
2052, 3110, 3154, 3150
*ELEMENT, TYPE=C3D3
2053, 3079, 3127, 3117
*ELEMENT, TYPE=C3D3
2054, 3150, 3154, 3194
*ELEMENT, TYPE=C3D3
2055, 3110, 3150, 3106
*ELEMENT, TYPE=C3D3
2056, 3150, 3194, 3192
*ELEMENT, TYPE=C3D3
2057, 3106, 3150, 3147
*ELEMENT, TYPE=C3D3
2058, 3150, 3192, 3147
*ELEMENT, TYPE=C3D3
2059, 3106, 3147, 3102
*ELEMENT, TYPE=C3D3
2060, 3147, 3192, 3189
*ELEMENT, TYPE=C3D3
2061, 3189, 3192, 3234
*ELEMENT, TYPE=C3D3
2062, 4267, 4265, 4225
*ELEMENT, TYPE=C3D3
2063, 4225, 4265, 4220
*ELEMENT, TYPE=C3D3
2064, 4225, 4220, 4180
*ELEMENT, TYPE=C3D3
2065, 4225, 4180, 4185
*ELEMENT, TYPE=C3D3
2066, 4185, 4180, 4143
*ELEMENT, TYPE=C3D3
2067, 4240, 4203, 4249
*ELEMENT, TYPE=C3D3
2068, 4249, 4203, 4211
*ELEMENT, TYPE=C3D3
2069, 4240, 4249, 4285
*ELEMENT, TYPE=C3D3
2070, 4249, 4211, 4256
*ELEMENT, TYPE=C3D3
2071, 4285, 4249, 4294
*ELEMENT, TYPE=C3D3
2072, 4256, 4211, 4216
*ELEMENT, TYPE=C3D3
2073, 4249, 4256, 4294
*ELEMENT, TYPE=C3D3
2074, 3333, 3374, 3330
*ELEMENT, TYPE=C3D3
2075, 3330, 3374, 3370
*ELEMENT, TYPE=C3D3
2076, 3333, 3330, 3290
*ELEMENT, TYPE=C3D3
2077, 3370, 3374, 3417
*ELEMENT, TYPE=C3D3
2078, 3330, 3370, 3328
*ELEMENT, TYPE=C3D3
2079, 3290, 3330, 3287
*ELEMENT, TYPE=C3D3
2080, 3370, 3417, 3415
*ELEMENT, TYPE=C3D3
2081, 3328, 3370, 3368
*ELEMENT, TYPE=C3D3
2082, 3287, 3330, 3328
*ELEMENT, TYPE=C3D3
2083, 3370, 3415, 3368
*ELEMENT, TYPE=C3D3
2084, 3368, 3415, 3413
*ELEMENT, TYPE=C3D3
2085, 3413, 3415, 3454
*ELEMENT, TYPE=C3D3
2086, 3368, 3413, 3369
*ELEMENT, TYPE=C3D3
2087, 3454, 3415, 3457
*ELEMENT, TYPE=C3D3
2088, 3413, 3454, 3455
*ELEMENT, TYPE=C3D3
2089, 3369, 3413, 3416
*ELEMENT, TYPE=C3D3
2090, 3457, 3415, 3417
*ELEMENT, TYPE=C3D3
2091, 3455, 3454, 3497
*ELEMENT, TYPE=C3D3
2092, 3416, 3413, 3455
*ELEMENT, TYPE=C3D3
2093, 3497, 3454, 3498
*ELEMENT, TYPE=C3D3
2094, 3455, 3497, 3499
*ELEMENT, TYPE=C3D3
2095, 3416, 3455, 3458
*ELEMENT, TYPE=C3D3
2096, 3498, 3454, 3457
*ELEMENT, TYPE=C3D3
2097, 3499, 3497, 3542
*ELEMENT, TYPE=C3D3
2098, 3458, 3455, 3499
*ELEMENT, TYPE=C3D3
2099, 3542, 3497, 3541
*ELEMENT, TYPE=C3D3
2100, 3458, 3499, 3501
*ELEMENT, TYPE=C3D3
2101, 3541, 3497, 3498
*ELEMENT, TYPE=C3D3
2102, 3542, 3541, 3581
*ELEMENT, TYPE=C3D3
2103, 3501, 3499, 3543
*ELEMENT, TYPE=C3D3
2104, 3542, 3581, 3583
*ELEMENT, TYPE=C3D3
2105, 3543, 3499, 3542
*ELEMENT, TYPE=C3D3
2106, 3501, 3543, 3545
*ELEMENT, TYPE=C3D3
2107, 3583, 3581, 3625
*ELEMENT, TYPE=C3D3
2108, 3545, 3543, 3584
*ELEMENT, TYPE=C3D3
2109, 3501, 3545, 3503
*ELEMENT, TYPE=C3D3
2110, 3584, 3543, 3583
*ELEMENT, TYPE=C3D3
2111, 3545, 3584, 3588
*ELEMENT, TYPE=C3D3
2112, 3503, 3545, 3546
*ELEMENT, TYPE=C3D3
2113, 3583, 3543, 3542
*ELEMENT, TYPE=C3D3
2114, 3588, 3584, 3627
*ELEMENT, TYPE=C3D3
2115, 3546, 3545, 3588
*ELEMENT, TYPE=C3D3
2116, 3627, 3584, 3626
*ELEMENT, TYPE=C3D3
2117, 3626, 3584, 3583
*ELEMENT, TYPE=C3D3
2118, 3627, 3626, 3670
*ELEMENT, TYPE=C3D3
2119, 3626, 3583, 3625
*ELEMENT, TYPE=C3D3
2120, 3670, 3626, 3668
*ELEMENT, TYPE=C3D3
2121, 3626, 3625, 3668
*ELEMENT, TYPE=C3D3
2122, 3287, 3328, 3284
*ELEMENT, TYPE=C3D3
2123, 3284, 3328, 3327
*ELEMENT, TYPE=C3D3
2124, 3287, 3284, 3242
*ELEMENT, TYPE=C3D3
2125, 3327, 3328, 3368
*ELEMENT, TYPE=C3D3
2126, 3242, 3284, 3241
*ELEMENT, TYPE=C3D3
2127, 3287, 3242, 3244
*ELEMENT, TYPE=C3D3
2128, 3327, 3368, 3369
*ELEMENT, TYPE=C3D3
2129, 3241, 3284, 3286
*ELEMENT, TYPE=C3D3
2130, 3244, 3242, 3199
*ELEMENT, TYPE=C3D3
2131, 3286, 3284, 3327
*ELEMENT, TYPE=C3D3
2132, 3241, 3286, 3243
*ELEMENT, TYPE=C3D3
2133, 3199, 3242, 3197
*ELEMENT, TYPE=C3D3
2134, 3243, 3286, 3288
*ELEMENT, TYPE=C3D3
2135, 3241, 3243, 3198
*ELEMENT, TYPE=C3D3
2136, 3197, 3242, 3241
*ELEMENT, TYPE=C3D3
2137, 3288, 3286, 3329
*ELEMENT, TYPE=C3D3
2138, 3198, 3243, 3201
*ELEMENT, TYPE=C3D3
2139, 3197, 3241, 3198
*ELEMENT, TYPE=C3D3
2140, 3329, 3286, 3327
*ELEMENT, TYPE=C3D3
2141, 3201, 3243, 3245
*ELEMENT, TYPE=C3D3
2142, 3329, 3327, 3369
*ELEMENT, TYPE=C3D3
2143, 3245, 3243, 3288
*ELEMENT, TYPE=C3D3
2144, 3329, 3369, 3373
*ELEMENT, TYPE=C3D3
2145, 3245, 3288, 3291
*ELEMENT, TYPE=C3D3
2146, 3373, 3369, 3416
*ELEMENT, TYPE=C3D3
2147, 3329, 3373, 3332
*ELEMENT, TYPE=C3D3
2148, 3291, 3288, 3332
*ELEMENT, TYPE=C3D3
2149, 3373, 3416, 3418
*ELEMENT, TYPE=C3D3
2150, 3332, 3373, 3375
*ELEMENT, TYPE=C3D3
2151, 3332, 3288, 3329
*ELEMENT, TYPE=C3D3
2152, 3418, 3416, 3458
*ELEMENT, TYPE=C3D3
2153, 3375, 3373, 3418
*ELEMENT, TYPE=C3D3
2154, 3418, 3458, 3462
*ELEMENT, TYPE=C3D3
2155, 3375, 3418, 3421
*ELEMENT, TYPE=C3D3
2156, 3462, 3458, 3501
*ELEMENT, TYPE=C3D3
2157, 3421, 3418, 3462
*ELEMENT, TYPE=C3D3
2158, 3462, 3501, 3503
*ELEMENT, TYPE=C3D3
2159, 3421, 3462, 3463
*ELEMENT, TYPE=C3D3
2160, 3462, 3503, 3463
*ELEMENT, TYPE=C3D3
2161, 3421, 3463, 3422
*ELEMENT, TYPE=C3D3
2162, 3463, 3503, 3505
*ELEMENT, TYPE=C3D3
2163, 3422, 3463, 3467
*ELEMENT, TYPE=C3D3
2164, 3421, 3422, 3377
*ELEMENT, TYPE=C3D3
2165, 3505, 3503, 3546
*ELEMENT, TYPE=C3D3
2166, 3467, 3463, 3505
*ELEMENT, TYPE=C3D3
2167, 3377, 3422, 3381
*ELEMENT, TYPE=C3D3
2168, 3505, 3546, 3549
*ELEMENT, TYPE=C3D3
2169, 3467, 3505, 3510
*ELEMENT, TYPE=C3D3
2170, 3381, 3422, 3424
*ELEMENT, TYPE=C3D3
2171, 3549, 3546, 3590
*ELEMENT, TYPE=C3D3
2172, 3510, 3505, 3549
*ELEMENT, TYPE=C3D3
2173, 3424, 3422, 3467
*ELEMENT, TYPE=C3D3
2174, 3590, 3546, 3588
*ELEMENT, TYPE=C3D3
2175, 3510, 3549, 3551
*ELEMENT, TYPE=C3D3
2176, 3424, 3467, 3468
*ELEMENT, TYPE=C3D3
2177, 3590, 3588, 3630
*ELEMENT, TYPE=C3D3
2178, 3551, 3549, 3595
*ELEMENT, TYPE=C3D3
2179, 3468, 3467, 3510
*ELEMENT, TYPE=C3D3
2180, 3630, 3588, 3627
*ELEMENT, TYPE=C3D3
2181, 3595, 3549, 3590
*ELEMENT, TYPE=C3D3
2182, 3630, 3627, 3672
*ELEMENT, TYPE=C3D3
2183, 3595, 3590, 3632
*ELEMENT, TYPE=C3D3
2184, 3672, 3627, 3670
*ELEMENT, TYPE=C3D3
2185, 3632, 3590, 3630
*ELEMENT, TYPE=C3D3
2186, 3672, 3670, 3711
*ELEMENT, TYPE=C3D3
2187, 3632, 3630, 3674
*ELEMENT, TYPE=C3D3
2188, 3711, 3670, 3709
*ELEMENT, TYPE=C3D3
2189, 3674, 3630, 3672
*ELEMENT, TYPE=C3D3
2190, 3709, 3670, 3668
*ELEMENT, TYPE=C3D3
2191, 3711, 3709, 3755
*ELEMENT, TYPE=C3D3
2192, 3711, 3755, 3756
*ELEMENT, TYPE=C3D3
2193, 3756, 3755, 3797
*ELEMENT, TYPE=C3D3
2194, 3711, 3756, 3716
*ELEMENT, TYPE=C3D3
2195, 3756, 3797, 3800
*ELEMENT, TYPE=C3D3
2196, 3716, 3756, 3757
*ELEMENT, TYPE=C3D3
2197, 3800, 3797, 3838
*ELEMENT, TYPE=C3D3
2198, 3756, 3800, 3757
*ELEMENT, TYPE=C3D3
2199, 3757, 3800, 3802
*ELEMENT, TYPE=C3D3
2200, 3802, 3800, 3842
*ELEMENT, TYPE=C3D3
2201, 3757, 3802, 3762
*ELEMENT, TYPE=C3D3
2202, 3842, 3800, 3838
*ELEMENT, TYPE=C3D3
2203, 3802, 3842, 3844
*ELEMENT, TYPE=C3D3
2204, 3762, 3802, 3806
*ELEMENT, TYPE=C3D3
2205, 3842, 3838, 3883
*ELEMENT, TYPE=C3D3
2206, 3844, 3842, 3884
*ELEMENT, TYPE=C3D3
2207, 3806, 3802, 3844
*ELEMENT, TYPE=C3D3
2208, 3884, 3842, 3883
*ELEMENT, TYPE=C3D3
2209, 3844, 3884, 3888
*ELEMENT, TYPE=C3D3
2210, 3884, 3883, 3925
*ELEMENT, TYPE=C3D3
2211, 3888, 3884, 3929
*ELEMENT, TYPE=C3D3
2212, 3884, 3925, 3929
*ELEMENT, TYPE=C3D3
2213, 3929, 3925, 3968
*ELEMENT, TYPE=C3D3
2214, 3929, 3968, 3972
*ELEMENT, TYPE=C3D3
2215, 3972, 3968, 4012
*ELEMENT, TYPE=C3D3
2216, 3929, 3972, 3930
*ELEMENT, TYPE=C3D3
2217, 3972, 4012, 4016
*ELEMENT, TYPE=C3D3
2218, 3930, 3972, 3975
*ELEMENT, TYPE=C3D3
2219, 4016, 4012, 4056
*ELEMENT, TYPE=C3D3
2220, 3975, 3972, 4016
*ELEMENT, TYPE=C3D3
2221, 3930, 3975, 3934
*ELEMENT, TYPE=C3D3
2222, 3975, 4016, 4018
*ELEMENT, TYPE=C3D3
2223, 3934, 3975, 3979
*ELEMENT, TYPE=C3D3
2224, 4018, 4016, 4057
*ELEMENT, TYPE=C3D3
2225, 3975, 4018, 3979
*ELEMENT, TYPE=C3D3
2226, 4057, 4016, 4056
*ELEMENT, TYPE=C3D3
2227, 3979, 4018, 4023
*ELEMENT, TYPE=C3D3
2228, 4057, 4056, 4099
*ELEMENT, TYPE=C3D3
2229, 4023, 4018, 4061
*ELEMENT, TYPE=C3D3
2230, 4057, 4099, 4102
*ELEMENT, TYPE=C3D3
2231, 4061, 4018, 4057
*ELEMENT, TYPE=C3D3
2232, 4102, 4099, 4140
*ELEMENT, TYPE=C3D3
2233, 4057, 4102, 4061
*ELEMENT, TYPE=C3D3
2234, 4061, 4102, 4106
*ELEMENT, TYPE=C3D3
2235, 4106, 4102, 4145
*ELEMENT, TYPE=C3D3
2236, 4061, 4106, 4067
*ELEMENT, TYPE=C3D3
2237, 4145, 4102, 4140
*ELEMENT, TYPE=C3D3
2238, 4106, 4145, 4151
*ELEMENT, TYPE=C3D3
2239, 4067, 4106, 4112
*ELEMENT, TYPE=C3D3
2240, 4145, 4140, 4184
*ELEMENT, TYPE=C3D3
2241, 4151, 4145, 4189
*ELEMENT, TYPE=C3D3
2242, 4112, 4106, 4151
*ELEMENT, TYPE=C3D3
2243, 4145, 4184, 4189
*ELEMENT, TYPE=C3D3
2244, 4112, 4151, 4156
*ELEMENT, TYPE=C3D3
2245, 4189, 4184, 4227
*ELEMENT, TYPE=C3D3
2246, 4156, 4151, 4195
*ELEMENT, TYPE=C3D3
2247, 4112, 4156, 4120
*ELEMENT, TYPE=C3D3
2248, 4195, 4151, 4189
*ELEMENT, TYPE=C3D3
2249, 4156, 4195, 4202
*ELEMENT, TYPE=C3D3
2250, 4120, 4156, 4163
*ELEMENT, TYPE=C3D3
2251, 4195, 4189, 4234
*ELEMENT, TYPE=C3D3
2252, 4202, 4195, 4241
*ELEMENT, TYPE=C3D3
2253, 4163, 4156, 4202
*ELEMENT, TYPE=C3D3
2254, 4234, 4189, 4227
*ELEMENT, TYPE=C3D3
2255, 4241, 4195, 4234
*ELEMENT, TYPE=C3D3
2256, 4234, 4227, 4271
*ELEMENT, TYPE=C3D3
2257, 4241, 4234, 4277
*ELEMENT, TYPE=C3D3
2258, 4234, 4271, 4277
*ELEMENT, TYPE=C3D3
2259, 4277, 4271, 4315
*ELEMENT, TYPE=C3D3
2260, 4277, 4315, 4323
*ELEMENT, TYPE=C3D3
2261, 4323, 4315, 4359
*ELEMENT, TYPE=C3D3
2262, 4277, 4323, 4283
*ELEMENT, TYPE=C3D3
2263, 4323, 4359, 4366
*ELEMENT, TYPE=C3D3
2264, 4283, 4323, 4328
*ELEMENT, TYPE=C3D3
2265, 4277, 4283, 4241
*ELEMENT, TYPE=C3D3
2266, 4366, 4359, 4406
*ELEMENT, TYPE=C3D3
2267, 4328, 4323, 4366
*ELEMENT, TYPE=C3D3
2268, 4241, 4283, 4248
*ELEMENT, TYPE=C3D3
2269, 4366, 4406, 4411
*ELEMENT, TYPE=C3D3
2270, 4248, 4283, 4290
*ELEMENT, TYPE=C3D3
2271, 4241, 4248, 4202
*ELEMENT, TYPE=C3D3
2272, 4411, 4406, 4449
*ELEMENT, TYPE=C3D3
2273, 4290, 4283, 4328
*ELEMENT, TYPE=C3D3
2274, 4202, 4248, 4208
*ELEMENT, TYPE=C3D3
2275, 4290, 4328, 4335
*ELEMENT, TYPE=C3D3
2276, 4208, 4248, 4252
*ELEMENT, TYPE=C3D3
2277, 4202, 4208, 4163
*ELEMENT, TYPE=C3D3
2278, 4335, 4328, 4373
*ELEMENT, TYPE=C3D3
2279, 4252, 4248, 4290
*ELEMENT, TYPE=C3D3
2280, 4163, 4208, 4169
*ELEMENT, TYPE=C3D3
2281, 4335, 4373, 4378
*ELEMENT, TYPE=C3D3
2282, 4252, 4290, 4296
*ELEMENT, TYPE=C3D3
2283, 4169, 4208, 4214
*ELEMENT, TYPE=C3D3
2284, 4378, 4373, 4416
*ELEMENT, TYPE=C3D3
2285, 4296, 4290, 4335
*ELEMENT, TYPE=C3D3
2286, 4214, 4208, 4252
*ELEMENT, TYPE=C3D3
2287, 4416, 4373, 4411
*ELEMENT, TYPE=C3D3
2288, 4214, 4252, 4258
*ELEMENT, TYPE=C3D3
2289, 4411, 4373, 4366
*ELEMENT, TYPE=C3D3
2290, 4258, 4252, 4296
*ELEMENT, TYPE=C3D3
2291, 4214, 4258, 4219
*ELEMENT, TYPE=C3D3
2292, 4366, 4373, 4328
*ELEMENT, TYPE=C3D3
2293, 4219, 4258, 4262
*ELEMENT, TYPE=C3D3
2294, 4262, 4258, 4303
*ELEMENT, TYPE=C3D3
2295, 4303, 4258, 4296
*ELEMENT, TYPE=C3D3
2296, 4262, 4303, 4307
*ELEMENT, TYPE=C3D3
2297, 4303, 4296, 4341
*ELEMENT, TYPE=C3D3
2298, 4307, 4303, 4346
*ELEMENT, TYPE=C3D3
2299, 4341, 4296, 4335
*ELEMENT, TYPE=C3D3
2300, 4346, 4303, 4341
*ELEMENT, TYPE=C3D3
2301, 4307, 4346, 4352
*ELEMENT, TYPE=C3D3
2302, 4346, 4341, 4386
*ELEMENT, TYPE=C3D3
2303, 4352, 4346, 4389
*ELEMENT, TYPE=C3D3
2304, 4386, 4341, 4378
*ELEMENT, TYPE=C3D3
2305, 4346, 4386, 4389
*ELEMENT, TYPE=C3D3
2306, 4378, 4341, 4335
*ELEMENT, TYPE=C3D3
2307, 4389, 4386, 4429
*ELEMENT, TYPE=C3D3
2308, 4429, 4386, 4422
*ELEMENT, TYPE=C3D3
2309, 4422, 4386, 4378
*ELEMENT, TYPE=C3D3
2310, 4429, 4422, 4467
*ELEMENT, TYPE=C3D3
2311, 4422, 4378, 4416
*ELEMENT, TYPE=C3D3
2312, 4467, 4422, 4462
*ELEMENT, TYPE=C3D3
2313, 4429, 4467, 4472
*ELEMENT, TYPE=C3D3
2314, 4422, 4416, 4462
*ELEMENT, TYPE=C3D3
2315, 4472, 4467, 4512
*ELEMENT, TYPE=C3D3
2316, 4462, 4416, 4455
*ELEMENT, TYPE=C3D3
2317, 4512, 4467, 4504
*ELEMENT, TYPE=C3D3
2318, 4472, 4512, 4515
*ELEMENT, TYPE=C3D3
2319, 4455, 4416, 4411
*ELEMENT, TYPE=C3D3
2320, 4504, 4467, 4462
*ELEMENT, TYPE=C3D3
2321, 4515, 4512, 4556
*ELEMENT, TYPE=C3D3
2322, 4455, 4411, 4449
*ELEMENT, TYPE=C3D3
2323, 4504, 4462, 4500
*ELEMENT, TYPE=C3D3
2324, 4556, 4512, 4550
*ELEMENT, TYPE=C3D3
2325, 4455, 4449, 4494
*ELEMENT, TYPE=C3D3
2326, 4500, 4462, 4455
*ELEMENT, TYPE=C3D3
2327, 4550, 4512, 4504
*ELEMENT, TYPE=C3D3
2328, 4500, 4455, 4494
*ELEMENT, TYPE=C3D3
2329, 4550, 4504, 4543
*ELEMENT, TYPE=C3D3
2330, 4543, 4504, 4500
*ELEMENT, TYPE=C3D3
2331, 4550, 4543, 4588
*ELEMENT, TYPE=C3D3
2332, 4588, 4543, 4581
*ELEMENT, TYPE=C3D3
2333, 4550, 4588, 4593
*ELEMENT, TYPE=C3D3
2334, 4581, 4543, 4537
*ELEMENT, TYPE=C3D3
2335, 4593, 4588, 4630
*ELEMENT, TYPE=C3D3
2336, 4537, 4543, 4500
*ELEMENT, TYPE=C3D3
2337, 4630, 4588, 4624
*ELEMENT, TYPE=C3D3
2338, 4593, 4630, 4637
*ELEMENT, TYPE=C3D3
2339, 4537, 4500, 4494
*ELEMENT, TYPE=C3D3
2340, 4624, 4588, 4581
*ELEMENT, TYPE=C3D3
2341, 4637, 4630, 4674
*ELEMENT, TYPE=C3D3
2342, 4674, 4630, 4669
*ELEMENT, TYPE=C3D3
2343, 4669, 4630, 4624
*ELEMENT, TYPE=C3D3
2344, 4674, 4669, 4712
*ELEMENT, TYPE=C3D3
2345, 3244, 3199, 3202
*ELEMENT, TYPE=C3D3
2346, 3202, 3199, 3159
*ELEMENT, TYPE=C3D3
2347, 3244, 3202, 3247
*ELEMENT, TYPE=C3D3
2348, 3159, 3199, 3156
*ELEMENT, TYPE=C3D3
2349, 3247, 3202, 3207
*ELEMENT, TYPE=C3D3
2350, 3156, 3199, 3197
*ELEMENT, TYPE=C3D3
2351, 3159, 3156, 3114
*ELEMENT, TYPE=C3D3
2352, 3207, 3202, 3162
*ELEMENT, TYPE=C3D3
2353, 3156, 3197, 3155
*ELEMENT, TYPE=C3D3
2354, 3114, 3156, 3112
*ELEMENT, TYPE=C3D3
2355, 3162, 3202, 3159
*ELEMENT, TYPE=C3D3
2356, 3155, 3197, 3198
*ELEMENT, TYPE=C3D3
2357, 3112, 3156, 3155
*ELEMENT, TYPE=C3D3
2358, 3155, 3198, 3157
*ELEMENT, TYPE=C3D3
2359, 3157, 3198, 3201
*ELEMENT, TYPE=C3D3
2360, 3155, 3157, 3113
*ELEMENT, TYPE=C3D3
2361, 3157, 3201, 3161
*ELEMENT, TYPE=C3D3
2362, 3113, 3157, 3115
*ELEMENT, TYPE=C3D3
2363, 3155, 3113, 3112
*ELEMENT, TYPE=C3D3
2364, 3161, 3201, 3206
*ELEMENT, TYPE=C3D3
2365, 3115, 3157, 3161
*ELEMENT, TYPE=C3D3
2366, 3112, 3113, 3069
*ELEMENT, TYPE=C3D3
2367, 3161, 3206, 3163
*ELEMENT, TYPE=C3D3
2368, 3069, 3113, 3073
*ELEMENT, TYPE=C3D3
2369, 3112, 3069, 3071
*ELEMENT, TYPE=C3D3
2370, 3163, 3206, 3208
*ELEMENT, TYPE=C3D3
2371, 3073, 3113, 3115
*ELEMENT, TYPE=C3D3
2372, 3071, 3069, 3025
*ELEMENT, TYPE=C3D3
2373, 3208, 3206, 3248
*ELEMENT, TYPE=C3D3
2374, 3025, 3069, 3026
*ELEMENT, TYPE=C3D3
2375, 3071, 3025, 3027
*ELEMENT, TYPE=C3D3
2376, 3248, 3206, 3245
*ELEMENT, TYPE=C3D3
2377, 3026, 3069, 3073
*ELEMENT, TYPE=C3D3
2378, 3027, 3025, 2982
*ELEMENT, TYPE=C3D3
2379, 3245, 3206, 3201
*ELEMENT, TYPE=C3D3
2380, 2982, 3025, 2981
*ELEMENT, TYPE=C3D3
2381, 3027, 2982, 2986
*ELEMENT, TYPE=C3D3
2382, 2982, 2981, 2939
*ELEMENT, TYPE=C3D3
2383, 2986, 2982, 2942
*ELEMENT, TYPE=C3D3
2384, 2939, 2981, 2941
*ELEMENT, TYPE=C3D3
2385, 2982, 2939, 2942
*ELEMENT, TYPE=C3D3
2386, 2941, 2981, 2984
*ELEMENT, TYPE=C3D3
2387, 2942, 2939, 2896
*ELEMENT, TYPE=C3D3
2388, 2984, 2981, 3026
*ELEMENT, TYPE=C3D3
2389, 2941, 2984, 2943
*ELEMENT, TYPE=C3D3
2390, 2896, 2939, 2895
*ELEMENT, TYPE=C3D3
2391, 3026, 2981, 3025
*ELEMENT, TYPE=C3D3
2392, 2984, 3026, 3028
*ELEMENT, TYPE=C3D3
2393, 2943, 2984, 2987
*ELEMENT, TYPE=C3D3
2394, 2895, 2939, 2941
*ELEMENT, TYPE=C3D3
2395, 3028, 3026, 3073
*ELEMENT, TYPE=C3D3
2396, 2984, 3028, 2987
*ELEMENT, TYPE=C3D3
2397, 3028, 3073, 3075
*ELEMENT, TYPE=C3D3
2398, 2987, 3028, 3032
*ELEMENT, TYPE=C3D3
2399, 3075, 3073, 3115
*ELEMENT, TYPE=C3D3
2400, 3028, 3075, 3032
*ELEMENT, TYPE=C3D3
2401, 3075, 3115, 3118
*ELEMENT, TYPE=C3D3
2402, 3032, 3075, 3077
*ELEMENT, TYPE=C3D3
2403, 3118, 3115, 3161
*ELEMENT, TYPE=C3D3
2404, 3075, 3118, 3077
*ELEMENT, TYPE=C3D3
2405, 3118, 3161, 3163
*ELEMENT, TYPE=C3D3
2406, 3077, 3118, 3122
*ELEMENT, TYPE=C3D3
2407, 3118, 3163, 3122
*ELEMENT, TYPE=C3D3
2408, 3077, 3122, 3080
*ELEMENT, TYPE=C3D3
2409, 3122, 3163, 3167
*ELEMENT, TYPE=C3D3
2410, 3080, 3122, 3126
*ELEMENT, TYPE=C3D3
2411, 3077, 3080, 3036
*ELEMENT, TYPE=C3D3
2412, 3167, 3163, 3208
*ELEMENT, TYPE=C3D3
2413, 3126, 3122, 3167
*ELEMENT, TYPE=C3D3
2414, 3080, 3126, 3085
*ELEMENT, TYPE=C3D3
2415, 3036, 3080, 3039
*ELEMENT, TYPE=C3D3
2416, 3126, 3167, 3171
*ELEMENT, TYPE=C3D3
2417, 3085, 3126, 3129
*ELEMENT, TYPE=C3D3
2418, 3080, 3085, 3039
*ELEMENT, TYPE=C3D3
2419, 3171, 3167, 3210
*ELEMENT, TYPE=C3D3
2420, 3129, 3126, 3171
*ELEMENT, TYPE=C3D3
2421, 3039, 3085, 3043
*ELEMENT, TYPE=C3D3
2422, 3210, 3167, 3208
*ELEMENT, TYPE=C3D3
2423, 3171, 3210, 3215
*ELEMENT, TYPE=C3D3
2424, 3129, 3171, 3175
*ELEMENT, TYPE=C3D3
2425, 3043, 3085, 3089
*ELEMENT, TYPE=C3D3
2426, 3215, 3210, 3256
*ELEMENT, TYPE=C3D3
2427, 3171, 3215, 3175
*ELEMENT, TYPE=C3D3
2428, 3089, 3085, 3129
*ELEMENT, TYPE=C3D3
2429, 3256, 3210, 3253
*ELEMENT, TYPE=C3D3
2430, 3175, 3215, 3218
*ELEMENT, TYPE=C3D3
2431, 3089, 3129, 3133
*ELEMENT, TYPE=C3D3
2432, 3253, 3210, 3208
*ELEMENT, TYPE=C3D3
2433, 3218, 3215, 3258
*ELEMENT, TYPE=C3D3
2434, 3175, 3218, 3179
*ELEMENT, TYPE=C3D3
2435, 3133, 3129, 3175
*ELEMENT, TYPE=C3D3
2436, 3258, 3215, 3256
*ELEMENT, TYPE=C3D3
2437, 3218, 3258, 3263
*ELEMENT, TYPE=C3D3
2438, 3179, 3218, 3222
*ELEMENT, TYPE=C3D3
2439, 3258, 3256, 3299
*ELEMENT, TYPE=C3D3
2440, 3263, 3258, 3303
*ELEMENT, TYPE=C3D3
2441, 3222, 3218, 3263
*ELEMENT, TYPE=C3D3
2442, 3179, 3222, 3185
*ELEMENT, TYPE=C3D3
2443, 3299, 3256, 3296
*ELEMENT, TYPE=C3D3
2444, 3303, 3258, 3299
*ELEMENT, TYPE=C3D3
2445, 3222, 3263, 3268
*ELEMENT, TYPE=C3D3
2446, 3185, 3222, 3229
*ELEMENT, TYPE=C3D3
2447, 3296, 3256, 3253
*ELEMENT, TYPE=C3D3
2448, 3303, 3299, 3342
*ELEMENT, TYPE=C3D3
2449, 3268, 3263, 3306
*ELEMENT, TYPE=C3D3
2450, 3229, 3222, 3268
*ELEMENT, TYPE=C3D3
2451, 3342, 3299, 3339
*ELEMENT, TYPE=C3D3
2452, 3303, 3342, 3346
*ELEMENT, TYPE=C3D3
2453, 3306, 3263, 3303
*ELEMENT, TYPE=C3D3
2454, 3229, 3268, 3275
*ELEMENT, TYPE=C3D3
2455, 3339, 3299, 3296
*ELEMENT, TYPE=C3D3
2456, 3346, 3342, 3386
*ELEMENT, TYPE=C3D3
2457, 3306, 3303, 3346
*ELEMENT, TYPE=C3D3
2458, 3275, 3268, 3313
*ELEMENT, TYPE=C3D3
2459, 3386, 3342, 3384
*ELEMENT, TYPE=C3D3
2460, 3346, 3386, 3389
*ELEMENT, TYPE=C3D3
2461, 3306, 3346, 3351
*ELEMENT, TYPE=C3D3
2462, 3313, 3268, 3306
*ELEMENT, TYPE=C3D3
2463, 3384, 3342, 3339
*ELEMENT, TYPE=C3D3
2464, 3389, 3386, 3432
*ELEMENT, TYPE=C3D3
2465, 3351, 3346, 3389
*ELEMENT, TYPE=C3D3
2466, 3313, 3306, 3351
*ELEMENT, TYPE=C3D3
2467, 3432, 3386, 3429
*ELEMENT, TYPE=C3D3
2468, 3389, 3432, 3437
*ELEMENT, TYPE=C3D3
2469, 3351, 3389, 3398
*ELEMENT, TYPE=C3D3
2470, 3313, 3351, 3358
*ELEMENT, TYPE=C3D3
2471, 3429, 3386, 3384
*ELEMENT, TYPE=C3D3
2472, 3437, 3432, 3477
*ELEMENT, TYPE=C3D3
2473, 3398, 3389, 3437
*ELEMENT, TYPE=C3D3
2474, 3358, 3351, 3398
*ELEMENT, TYPE=C3D3
2475, 3477, 3432, 3471
*ELEMENT, TYPE=C3D3
2476, 3437, 3477, 3481
*ELEMENT, TYPE=C3D3
2477, 3398, 3437, 3442
*ELEMENT, TYPE=C3D3
2478, 3358, 3398, 3403
*ELEMENT, TYPE=C3D3
2479, 3471, 3432, 3429
*ELEMENT, TYPE=C3D3
2480, 3481, 3477, 3519
*ELEMENT, TYPE=C3D3
2481, 3442, 3437, 3481
*ELEMENT, TYPE=C3D3
2482, 3403, 3398, 3442
*ELEMENT, TYPE=C3D3
2483, 3519, 3477, 3515
*ELEMENT, TYPE=C3D3
2484, 3481, 3519, 3526
*ELEMENT, TYPE=C3D3
2485, 3442, 3481, 3487
*ELEMENT, TYPE=C3D3
2486, 3403, 3442, 3449
*ELEMENT, TYPE=C3D3
2487, 3515, 3477, 3471
*ELEMENT, TYPE=C3D3
2488, 3526, 3519, 3565
*ELEMENT, TYPE=C3D3
2489, 3487, 3481, 3526
*ELEMENT, TYPE=C3D3
2490, 3449, 3442, 3487
*ELEMENT, TYPE=C3D3
2491, 3565, 3519, 3560
*ELEMENT, TYPE=C3D3
2492, 3526, 3565, 3571
*ELEMENT, TYPE=C3D3
2493, 3487, 3526, 3532
*ELEMENT, TYPE=C3D3
2494, 3449, 3487, 3493
*ELEMENT, TYPE=C3D3
2495, 3560, 3519, 3515
*ELEMENT, TYPE=C3D3
2496, 3571, 3565, 3610
*ELEMENT, TYPE=C3D3
2497, 3532, 3526, 3571
*ELEMENT, TYPE=C3D3
2498, 3493, 3487, 3532
*ELEMENT, TYPE=C3D3
2499, 3610, 3565, 3605
*ELEMENT, TYPE=C3D3
2500, 3571, 3610, 3615
*ELEMENT, TYPE=C3D3
2501, 3532, 3571, 3578
*ELEMENT, TYPE=C3D3
2502, 3493, 3532, 3538
*ELEMENT, TYPE=C3D3
2503, 3605, 3565, 3560
*ELEMENT, TYPE=C3D3
2504, 3615, 3610, 3656
*ELEMENT, TYPE=C3D3
2505, 3578, 3571, 3615
*ELEMENT, TYPE=C3D3
2506, 3538, 3532, 3578
*ELEMENT, TYPE=C3D3
2507, 3656, 3610, 3650
*ELEMENT, TYPE=C3D3
2508, 3615, 3656, 3662
*ELEMENT, TYPE=C3D3
2509, 3578, 3615, 3621
*ELEMENT, TYPE=C3D3
2510, 3538, 3578, 3582
*ELEMENT, TYPE=C3D3
2511, 3650, 3610, 3605
*ELEMENT, TYPE=C3D3
2512, 3662, 3656, 3701
*ELEMENT, TYPE=C3D3
2513, 3621, 3615, 3662
*ELEMENT, TYPE=C3D3
2514, 3582, 3578, 3621
*ELEMENT, TYPE=C3D3
2515, 3701, 3656, 3694
*ELEMENT, TYPE=C3D3
2516, 3662, 3701, 3707
*ELEMENT, TYPE=C3D3
2517, 3621, 3662, 3667
*ELEMENT, TYPE=C3D3
2518, 3582, 3621, 3629
*ELEMENT, TYPE=C3D3
2519, 3694, 3656, 3650
*ELEMENT, TYPE=C3D3
2520, 3707, 3701, 3745
*ELEMENT, TYPE=C3D3
2521, 3667, 3662, 3707
*ELEMENT, TYPE=C3D3
2522, 3629, 3621, 3667
*ELEMENT, TYPE=C3D3
2523, 3745, 3701, 3739
*ELEMENT, TYPE=C3D3
2524, 3707, 3745, 3751
*ELEMENT, TYPE=C3D3
2525, 3667, 3707, 3712
*ELEMENT, TYPE=C3D3
2526, 3629, 3667, 3675
*ELEMENT, TYPE=C3D3
2527, 3739, 3701, 3694
*ELEMENT, TYPE=C3D3
2528, 3751, 3745, 3790
*ELEMENT, TYPE=C3D3
2529, 3712, 3707, 3751
*ELEMENT, TYPE=C3D3
2530, 3675, 3667, 3712
*ELEMENT, TYPE=C3D3
2531, 3790, 3745, 3784
*ELEMENT, TYPE=C3D3
2532, 3751, 3790, 3795
*ELEMENT, TYPE=C3D3
2533, 3675, 3712, 3722
*ELEMENT, TYPE=C3D3
2534, 3784, 3745, 3739
*ELEMENT, TYPE=C3D3
2535, 3795, 3790, 3836
*ELEMENT, TYPE=C3D3
2536, 3751, 3795, 3759
*ELEMENT, TYPE=C3D3
2537, 3722, 3712, 3759
*ELEMENT, TYPE=C3D3
2538, 3784, 3739, 3779
*ELEMENT, TYPE=C3D3
2539, 3836, 3790, 3830
*ELEMENT, TYPE=C3D3
2540, 3759, 3795, 3803
*ELEMENT, TYPE=C3D3
2541, 3759, 3712, 3751
*ELEMENT, TYPE=C3D3
2542, 3779, 3739, 3735
*ELEMENT, TYPE=C3D3
2543, 3830, 3790, 3784
*ELEMENT, TYPE=C3D3
2544, 3803, 3795, 3840
*ELEMENT, TYPE=C3D3
2545, 3735, 3739, 3694
*ELEMENT, TYPE=C3D3
2546, 3830, 3784, 3824
*ELEMENT, TYPE=C3D3
2547, 3840, 3795, 3836
*ELEMENT, TYPE=C3D3
2548, 3803, 3840, 3850
*ELEMENT, TYPE=C3D3
2549, 3824, 3784, 3779
*ELEMENT, TYPE=C3D3
2550, 3830, 3824, 3868
*ELEMENT, TYPE=C3D3
2551, 3850, 3840, 3886
*ELEMENT, TYPE=C3D3
2552, 3803, 3850, 3811
*ELEMENT, TYPE=C3D3
2553, 3824, 3779, 3818
*ELEMENT, TYPE=C3D3
2554, 3868, 3824, 3863
*ELEMENT, TYPE=C3D3
2555, 3886, 3840, 3879
*ELEMENT, TYPE=C3D3
2556, 3811, 3850, 3858
*ELEMENT, TYPE=C3D3
2557, 3818, 3779, 3772
*ELEMENT, TYPE=C3D3
2558, 3863, 3824, 3818
*ELEMENT, TYPE=C3D3
2559, 3879, 3840, 3836
*ELEMENT, TYPE=C3D3
2560, 3858, 3850, 3895
*ELEMENT, TYPE=C3D3
2561, 3772, 3779, 3735
*ELEMENT, TYPE=C3D3
2562, 3863, 3818, 3856
*ELEMENT, TYPE=C3D3
2563, 3895, 3850, 3886
*ELEMENT, TYPE=C3D3
2564, 3858, 3895, 3903
*ELEMENT, TYPE=C3D3
2565, 3856, 3818, 3812
*ELEMENT, TYPE=C3D3
2566, 3863, 3856, 3901
*ELEMENT, TYPE=C3D3
2567, 3903, 3895, 3939
*ELEMENT, TYPE=C3D3
2568, 3858, 3903, 3867
*ELEMENT, TYPE=C3D3
2569, 3812, 3818, 3772
*ELEMENT, TYPE=C3D3
2570, 3901, 3856, 3897
*ELEMENT, TYPE=C3D3
2571, 3939, 3895, 3932
*ELEMENT, TYPE=C3D3
2572, 3867, 3903, 3914
*ELEMENT, TYPE=C3D3
2573, 3897, 3856, 3852
*ELEMENT, TYPE=C3D3
2574, 3901, 3897, 3938
*ELEMENT, TYPE=C3D3
2575, 3932, 3895, 3886
*ELEMENT, TYPE=C3D3
2576, 3914, 3903, 3949
*ELEMENT, TYPE=C3D3
2577, 3852, 3856, 3812
*ELEMENT, TYPE=C3D3
2578, 3938, 3897, 3934
*ELEMENT, TYPE=C3D3
2579, 3949, 3903, 3939
*ELEMENT, TYPE=C3D3
2580, 3914, 3949, 3962
*ELEMENT, TYPE=C3D3
2581, 3934, 3897, 3891
*ELEMENT, TYPE=C3D3
2582, 3938, 3934, 3979
*ELEMENT, TYPE=C3D3
2583, 3962, 3949, 3996
*ELEMENT, TYPE=C3D3
2584, 3914, 3954, 3906
*ELEMENT, TYPE=C3D3
2585, 3891, 3897, 3852
*ELEMENT, TYPE=C3D3
2586, 3938, 3979, 3984
*ELEMENT, TYPE=C3D3
2587, 3996, 3949, 3987
*ELEMENT, TYPE=C3D3
2588, 3891, 3852, 3848
*ELEMENT, TYPE=C3D3
2589, 3984, 3979, 4023
*ELEMENT, TYPE=C3D3
2590, 3938, 3984, 3946
*ELEMENT, TYPE=C3D3
2591, 3987, 3949, 3939
*ELEMENT, TYPE=C3D3
2592, 3848, 3852, 3807
*ELEMENT, TYPE=C3D3
2593, 3984, 4023, 4029
*ELEMENT, TYPE=C3D3
2594, 3946, 3984, 3992
*ELEMENT, TYPE=C3D3
2595, 3807, 3852, 3812
*ELEMENT, TYPE=C3D3
2596, 3848, 3807, 3806
*ELEMENT, TYPE=C3D3
2597, 4029, 4023, 4067
*ELEMENT, TYPE=C3D3
2598, 3992, 3984, 4029
*ELEMENT, TYPE=C3D3
2599, 3806, 3807, 3765
*ELEMENT, TYPE=C3D3
2600, 3848, 3806, 3844
*ELEMENT, TYPE=C3D3
2601, 4067, 4023, 4061
*ELEMENT, TYPE=C3D3
2602, 3992, 4029, 4035
*ELEMENT, TYPE=C3D3
2603, 3765, 3807, 3770
*ELEMENT, TYPE=C3D3
2604, 3848, 3844, 3888
*ELEMENT, TYPE=C3D3
2605, 4035, 4029, 4073
*ELEMENT, TYPE=C3D3
2606, 3992, 4035, 3997
*ELEMENT, TYPE=C3D3
2607, 3770, 3807, 3812
*ELEMENT, TYPE=C3D3
2608, 3848, 3888, 3891
*ELEMENT, TYPE=C3D3
2609, 4073, 4029, 4067
*ELEMENT, TYPE=C3D3
2610, 3997, 4035, 4041
*ELEMENT, TYPE=C3D3
2611, 3891, 3888, 3930
*ELEMENT, TYPE=C3D3
2612, 4073, 4067, 4112
*ELEMENT, TYPE=C3D3
2613, 4041, 4035, 4079
*ELEMENT, TYPE=C3D3
2614, 3997, 4041, 4004
*ELEMENT, TYPE=C3D3
2615, 3930, 3888, 3929
*ELEMENT, TYPE=C3D3
2616, 4073, 4112, 4120
*ELEMENT, TYPE=C3D3
2617, 4079, 4035, 4073
*ELEMENT, TYPE=C3D3
2618, 4004, 4041, 4048
*ELEMENT, TYPE=C3D3
2619, 4073, 4120, 4079
*ELEMENT, TYPE=C3D3
2620, 4048, 4041, 4086
*ELEMENT, TYPE=C3D3
2621, 4004, 4048, 4008
*ELEMENT, TYPE=C3D3
2622, 4079, 4120, 4123
*ELEMENT, TYPE=C3D3
2623, 4086, 4041, 4079
*ELEMENT, TYPE=C3D3
2624, 4048, 4086, 4092
*ELEMENT, TYPE=C3D3
2625, 4008, 4048, 4052
*ELEMENT, TYPE=C3D3
2626, 4123, 4120, 4163
*ELEMENT, TYPE=C3D3
2627, 4092, 4086, 4130
*ELEMENT, TYPE=C3D3
2628, 4048, 4092, 4052
*ELEMENT, TYPE=C3D3
2629, 4123, 4163, 4169
*ELEMENT, TYPE=C3D3
2630, 4130, 4086, 4123
*ELEMENT, TYPE=C3D3
2631, 4052, 4092, 4097
*ELEMENT, TYPE=C3D3
2632, 4123, 4169, 4130
*ELEMENT, TYPE=C3D3
2633, 4123, 4086, 4079
*ELEMENT, TYPE=C3D3
2634, 4097, 4092, 4134
*ELEMENT, TYPE=C3D3
2635, 4052, 4097, 4059
*ELEMENT, TYPE=C3D3
2636, 4130, 4169, 4175
*ELEMENT, TYPE=C3D3
2637, 4134, 4092, 4130
*ELEMENT, TYPE=C3D3
2638, 4059, 4097, 4104
*ELEMENT, TYPE=C3D3
2639, 4052, 4059, 4014
*ELEMENT, TYPE=C3D3
2640, 4175, 4169, 4214
*ELEMENT, TYPE=C3D3
2641, 4134, 4130, 4175
*ELEMENT, TYPE=C3D3
2642, 4104, 4097, 4142
*ELEMENT, TYPE=C3D3
2643, 4014, 4059, 4022
*ELEMENT, TYPE=C3D3
2644, 4175, 4214, 4219
*ELEMENT, TYPE=C3D3
2645, 4134, 4175, 4179
*ELEMENT, TYPE=C3D3
2646, 4142, 4097, 4134
*ELEMENT, TYPE=C3D3
2647, 4022, 4059, 4068
*ELEMENT, TYPE=C3D3
2648, 4175, 4219, 4179
*ELEMENT, TYPE=C3D3
2649, 4068, 4059, 4104
*ELEMENT, TYPE=C3D3
2650, 4022, 4068, 4033
*ELEMENT, TYPE=C3D3
2651, 4179, 4219, 4224
*ELEMENT, TYPE=C3D3
2652, 4068, 4104, 4115
*ELEMENT, TYPE=C3D3
2653, 4033, 4068, 4077
*ELEMENT, TYPE=C3D3
2654, 4022, 4033, 3987
*ELEMENT, TYPE=C3D3
2655, 4224, 4219, 4262
*ELEMENT, TYPE=C3D3
2656, 4115, 4104, 4150
*ELEMENT, TYPE=C3D3
2657, 4077, 4068, 4115
*ELEMENT, TYPE=C3D3
2658, 3987, 4033, 3996
*ELEMENT, TYPE=C3D3
2659, 4150, 4104, 4142
*ELEMENT, TYPE=C3D3
2660, 4115, 4150, 4161
*ELEMENT, TYPE=C3D3
2661, 3996, 4033, 4045
*ELEMENT, TYPE=C3D3
2662, 4150, 4142, 4186
*ELEMENT, TYPE=C3D3
2663, 4161, 4150, 4197
*ELEMENT, TYPE=C3D3
2664, 4186, 4142, 4179
*ELEMENT, TYPE=C3D3
2665, 4150, 4186, 4197
*ELEMENT, TYPE=C3D3
2666, 4179, 4142, 4134
*ELEMENT, TYPE=C3D3
2667, 4186, 4179, 4224
*ELEMENT, TYPE=C3D3
2668, 4197, 4186, 4231
*ELEMENT, TYPE=C3D3
2669, 4186, 4224, 4231
*ELEMENT, TYPE=C3D3
2670, 4197, 4231, 4244
*ELEMENT, TYPE=C3D3
2671, 4231, 4224, 4269
*ELEMENT, TYPE=C3D3
2672, 4244, 4231, 4278
*ELEMENT, TYPE=C3D3
2673, 4197, 4244, 4205
*ELEMENT, TYPE=C3D3
2674, 4269, 4224, 4262
*ELEMENT, TYPE=C3D3
2675, 4231, 4269, 4278
*ELEMENT, TYPE=C3D3
2676, 4205, 4244, 4237
*ELEMENT, TYPE=C3D3
2677, 4205, 4237, 4188
*ELEMENT, TYPE=C3D3
2678, 4205, 4188, 4161
*ELEMENT, TYPE=C3D3
2679, 4269, 4262, 4307
*ELEMENT, TYPE=C3D3
2680, 4278, 4269, 4314
*ELEMENT, TYPE=C3D3
2681, 4205, 4161, 4197
*ELEMENT, TYPE=C3D3
2682, 4269, 4307, 4314
*ELEMENT, TYPE=C3D3
2683, 4278, 4314, 4302
*ELEMENT, TYPE=C3D3
2684, 4314, 4307, 4352
*ELEMENT, TYPE=C3D3
2685, 4314, 4352, 4358
*ELEMENT, TYPE=C3D3
2686, 4358, 4352, 4397
*ELEMENT, TYPE=C3D3
2687, 4314, 4358, 4348
*ELEMENT, TYPE=C3D3
2688, 4348, 4358, 4394
*ELEMENT, TYPE=C3D3
2689, 4397, 4352, 4389
*ELEMENT, TYPE=C3D3
2690, 4358, 4397, 4394
*ELEMENT, TYPE=C3D3
2691, 4397, 4389, 4434
*ELEMENT, TYPE=C3D3
2692, 4434, 4389, 4429
*ELEMENT, TYPE=C3D3
2693, 4397, 4434, 4441
*ELEMENT, TYPE=C3D3
2694, 4434, 4429, 4472
*ELEMENT, TYPE=C3D3
2695, 4441, 4434, 4478
*ELEMENT, TYPE=C3D3
2696, 4434, 4472, 4478
*ELEMENT, TYPE=C3D3
2697, 4478, 4472, 4515
*ELEMENT, TYPE=C3D3
2698, 4478, 4515, 4524
*ELEMENT, TYPE=C3D3
2699, 4524, 4515, 4560
*ELEMENT, TYPE=C3D3
2700, 4478, 4524, 4488
*ELEMENT, TYPE=C3D3
2701, 4560, 4515, 4556
*ELEMENT, TYPE=C3D3
2702, 4488, 4524, 4533
*ELEMENT, TYPE=C3D3
2703, 4478, 4488, 4441
*ELEMENT, TYPE=C3D3
2704, 4560, 4556, 4601
*ELEMENT, TYPE=C3D3
2705, 4533, 4524, 4566
*ELEMENT, TYPE=C3D3
2706, 4488, 4533, 4484
*ELEMENT, TYPE=C3D3
2707, 4441, 4488, 4452
*ELEMENT, TYPE=C3D3
2708, 4560, 4601, 4606
*ELEMENT, TYPE=C3D3
2709, 4566, 4524, 4560
*ELEMENT, TYPE=C3D3
2710, 4484, 4533, 4547
*ELEMENT, TYPE=C3D3
2711, 4452, 4488, 4484
*ELEMENT, TYPE=C3D3
2712, 4606, 4601, 4641
*ELEMENT, TYPE=C3D3
2713, 4547, 4533, 4572
*ELEMENT, TYPE=C3D3
2714, 4484, 4547, 4505
*ELEMENT, TYPE=C3D3
2715, 4641, 4601, 4637
*ELEMENT, TYPE=C3D3
2716, 4606, 4641, 4652
*ELEMENT, TYPE=C3D3
2717, 4572, 4533, 4566
*ELEMENT, TYPE=C3D3
2718, 4637, 4601, 4593
*ELEMENT, TYPE=C3D3
2719, 4641, 4637, 4681
*ELEMENT, TYPE=C3D3
2720, 4652, 4641, 4685
*ELEMENT, TYPE=C3D3
2721, 4593, 4601, 4556
*ELEMENT, TYPE=C3D3
2722, 4681, 4637, 4674
*ELEMENT, TYPE=C3D3
2723, 4641, 4681, 4685
*ELEMENT, TYPE=C3D3
2724, 4681, 4674, 4719
*ELEMENT, TYPE=C3D3
2725, 4685, 4681, 4726
*ELEMENT, TYPE=C3D3
2726, 4719, 4674, 4712
*ELEMENT, TYPE=C3D3
2727, 4681, 4719, 4726
*ELEMENT, TYPE=C3D3
2728, 4719, 4712, 4755
*ELEMENT, TYPE=C3D3
2729, 4726, 4719, 4763
*ELEMENT, TYPE=C3D3
2730, 4719, 4755, 4763
*ELEMENT, TYPE=C3D3
2731, 4726, 4763, 4767
*ELEMENT, TYPE=C3D3
2732, 4763, 4755, 4798
*ELEMENT, TYPE=C3D3
2733, 4767, 4763, 4805
*ELEMENT, TYPE=C3D3
2734, 4726, 4767, 4732
*ELEMENT, TYPE=C3D3
2735, 4763, 4798, 4805
*ELEMENT, TYPE=C3D3
2736, 4767, 4805, 4810
*ELEMENT, TYPE=C3D3
2737, 4732, 4767, 4772
*ELEMENT, TYPE=C3D3
2738, 4805, 4798, 4843
*ELEMENT, TYPE=C3D3
2739, 4810, 4805, 4850
*ELEMENT, TYPE=C3D3
2740, 4767, 4810, 4772
*ELEMENT, TYPE=C3D3
2741, 4805, 4843, 4850
*ELEMENT, TYPE=C3D3
2742, 4772, 4810, 4822
*ELEMENT, TYPE=C3D3
2743, 4850, 4843, 4887
*ELEMENT, TYPE=C3D3
2744, 4822, 4810, 4858
*ELEMENT, TYPE=C3D3
2745, 4772, 4822, 4780
*ELEMENT, TYPE=C3D3
2746, 4850, 4887, 4892
*ELEMENT, TYPE=C3D3
2747, 4858, 4810, 4850
*ELEMENT, TYPE=C3D3
2748, 4822, 4858, 4867
*ELEMENT, TYPE=C3D3
2749, 4780, 4822, 4830
*ELEMENT, TYPE=C3D3
2750, 4892, 4887, 4931
*ELEMENT, TYPE=C3D3
2751, 4867, 4858, 4904
*ELEMENT, TYPE=C3D3
2752, 4822, 4867, 4830
*ELEMENT, TYPE=C3D3
2753, 4892, 4931, 4938
*ELEMENT, TYPE=C3D3
2754, 4904, 4858, 4892
*ELEMENT, TYPE=C3D3
2755, 4830, 4867, 4875
*ELEMENT, TYPE=C3D3
2756, 4938, 4931, 4975
*ELEMENT, TYPE=C3D3
2757, 4892, 4938, 4904
*ELEMENT, TYPE=C3D3
2758, 4892, 4858, 4850
*ELEMENT, TYPE=C3D3
2759, 4875, 4867, 4912
*ELEMENT, TYPE=C3D3
2760, 4938, 4975, 4985
*ELEMENT, TYPE=C3D3
2761, 4904, 4938, 4949
*ELEMENT, TYPE=C3D3
2762, 4912, 4867, 4904
*ELEMENT, TYPE=C3D3
2763, 4875, 4912, 4920
*ELEMENT, TYPE=C3D3
2764, 4985, 4975, 5020
*ELEMENT, TYPE=C3D3
2765, 4949, 4938, 4985
*ELEMENT, TYPE=C3D3
2766, 4912, 4904, 4949
*ELEMENT, TYPE=C3D3
2767, 4920, 4912, 4957
*ELEMENT, TYPE=C3D3
2768, 4949, 4985, 4993
*ELEMENT, TYPE=C3D3
2769, 4912, 4949, 4957
*ELEMENT, TYPE=C3D3
2770, 4920, 4957, 4964
*ELEMENT, TYPE=C3D3
2771, 4993, 4985, 5030
*ELEMENT, TYPE=C3D3
2772, 4957, 4949, 4993
*ELEMENT, TYPE=C3D3
2773, 4964, 4957, 5002
*ELEMENT, TYPE=C3D3
2774, 4920, 4964, 4926
*ELEMENT, TYPE=C3D3
2775, 5030, 4985, 5020
*ELEMENT, TYPE=C3D3
2776, 5002, 4957, 4993
*ELEMENT, TYPE=C3D3
2777, 4964, 5002, 5008
*ELEMENT, TYPE=C3D3
2778, 4926, 4964, 4970
*ELEMENT, TYPE=C3D3
2779, 5030, 5020, 5066
*ELEMENT, TYPE=C3D3
2780, 5008, 5002, 5045
*ELEMENT, TYPE=C3D3
2781, 4964, 5008, 4970
*ELEMENT, TYPE=C3D3
2782, 5045, 5002, 5038
*ELEMENT, TYPE=C3D3
2783, 5008, 5045, 5052
*ELEMENT, TYPE=C3D3
2784, 4970, 5008, 5015
*ELEMENT, TYPE=C3D3
2785, 5038, 5002, 4993
*ELEMENT, TYPE=C3D3
2786, 5045, 5038, 5082
*ELEMENT, TYPE=C3D3
2787, 5052, 5045, 5090
*ELEMENT, TYPE=C3D3
2788, 5015, 5008, 5052
*ELEMENT, TYPE=C3D3
2789, 5082, 5038, 5075
*ELEMENT, TYPE=C3D3
2790, 5045, 5082, 5090
*ELEMENT, TYPE=C3D3
2791, 5015, 5052, 5061
*ELEMENT, TYPE=C3D3
2792, 5075, 5038, 5030
*ELEMENT, TYPE=C3D3
2793, 5090, 5082, 5127
*ELEMENT, TYPE=C3D3
2794, 5061, 5052, 5097
*ELEMENT, TYPE=C3D3
2795, 5015, 5061, 5028
*ELEMENT, TYPE=C3D3
2796, 5030, 5038, 4993
*ELEMENT, TYPE=C3D3
2797, 5127, 5082, 5119
*ELEMENT, TYPE=C3D3
2798, 5097, 5052, 5090
*ELEMENT, TYPE=C3D3
2799, 5028, 5061, 5074
*ELEMENT, TYPE=C3D3
2800, 5119, 5082, 5075
*ELEMENT, TYPE=C3D3
2801, 5127, 5119, 5163
*ELEMENT, TYPE=C3D3
2802, 5097, 5090, 5133
*ELEMENT, TYPE=C3D3
2803, 5074, 5061, 5107
*ELEMENT, TYPE=C3D3
2804, 5119, 5075, 5111
*ELEMENT, TYPE=C3D3
2805, 5163, 5119, 5156
*ELEMENT, TYPE=C3D3
2806, 5133, 5090, 5127
*ELEMENT, TYPE=C3D3
2807, 5107, 5061, 5097
*ELEMENT, TYPE=C3D3
2808, 5111, 5075, 5066
*ELEMENT, TYPE=C3D3
2809, 5156, 5119, 5111
*ELEMENT, TYPE=C3D3
2810, 5133, 5127, 5171
*ELEMENT, TYPE=C3D3
2811, 5107, 5097, 5141
*ELEMENT, TYPE=C3D3
2812, 5066, 5075, 5030
*ELEMENT, TYPE=C3D3
2813, 5171, 5127, 5163
*ELEMENT, TYPE=C3D3
2814, 5133, 5171, 5178
*ELEMENT, TYPE=C3D3
2815, 5141, 5097, 5133
*ELEMENT, TYPE=C3D3
2816, 5171, 5163, 5207
*ELEMENT, TYPE=C3D3
2817, 5178, 5171, 5215
*ELEMENT, TYPE=C3D3
2818, 5133, 5178, 5141
*ELEMENT, TYPE=C3D3
2819, 5207, 5163, 5200
*ELEMENT, TYPE=C3D3
2820, 5215, 5171, 5207
*ELEMENT, TYPE=C3D3
2821, 5141, 5178, 5188
*ELEMENT, TYPE=C3D3
2822, 5200, 5163, 5156
*ELEMENT, TYPE=C3D3
2823, 5207, 5200, 5246
*ELEMENT, TYPE=C3D3
2824, 5215, 5207, 5253
*ELEMENT, TYPE=C3D3
2825, 5188, 5178, 5222
*ELEMENT, TYPE=C3D3
2826, 5207, 5246, 5253
*ELEMENT, TYPE=C3D3
2827, 5222, 5178, 5215
*ELEMENT, TYPE=C3D3
2828, 5253, 5246, 5288
*ELEMENT, TYPE=C3D3
2829, 5222, 5215, 5258
*ELEMENT, TYPE=C3D3
2830, 5253, 5288, 5297
*ELEMENT, TYPE=C3D3
2831, 5258, 5215, 5253
*ELEMENT, TYPE=C3D3
2832, 5222, 5258, 5267
*ELEMENT, TYPE=C3D3
2833, 5297, 5288, 5333
*ELEMENT, TYPE=C3D3
2834, 5258, 5253, 5297
*ELEMENT, TYPE=C3D3
2835, 5267, 5258, 5303
*ELEMENT, TYPE=C3D3
2836, 5258, 5297, 5303
*ELEMENT, TYPE=C3D3
2837, 5267, 5303, 5315
*ELEMENT, TYPE=C3D3
2838, 5303, 5297, 5340
*ELEMENT, TYPE=C3D3
2839, 5315, 5303, 5347
*ELEMENT, TYPE=C3D3
2840, 5267, 5315, 5278
*ELEMENT, TYPE=C3D3
2841, 5340, 5297, 5333
*ELEMENT, TYPE=C3D3
2842, 5347, 5303, 5340
*ELEMENT, TYPE=C3D3
2843, 5278, 5315, 5325
*ELEMENT, TYPE=C3D3
2844, 5267, 5278, 5233
*ELEMENT, TYPE=C3D3
2845, 5347, 5340, 5383
*ELEMENT, TYPE=C3D3
2846, 5325, 5315, 5360
*ELEMENT, TYPE=C3D3
2847, 5233, 5278, 5245
*ELEMENT, TYPE=C3D3
2848, 5267, 5233, 5222
*ELEMENT, TYPE=C3D3
2849, 5383, 5340, 5377
*ELEMENT, TYPE=C3D3
2850, 5360, 5315, 5347
*ELEMENT, TYPE=C3D3
2851, 5245, 5278, 5289
*ELEMENT, TYPE=C3D3
2852, 5222, 5233, 5188
*ELEMENT, TYPE=C3D3
2853, 5377, 5340, 5333
*ELEMENT, TYPE=C3D3
2854, 5360, 5347, 5395
*ELEMENT, TYPE=C3D3
2855, 5289, 5278, 5325
*ELEMENT, TYPE=C3D3
2856, 5188, 5233, 5199
*ELEMENT, TYPE=C3D3
2857, 5395, 5347, 5383
*ELEMENT, TYPE=C3D3
2858, 5360, 5395, 5405
*ELEMENT, TYPE=C3D3
2859, 5199, 5233, 5245
*ELEMENT, TYPE=C3D3
2860, 5188, 5199, 5153
*ELEMENT, TYPE=C3D3
2861, 5405, 5395, 5440
*ELEMENT, TYPE=C3D3
2862, 5360, 5405, 5370
*ELEMENT, TYPE=C3D3
2863, 5153, 5199, 5164
*ELEMENT, TYPE=C3D3
2864, 5188, 5153, 5141
*ELEMENT, TYPE=C3D3
2865, 5440, 5395, 5429
*ELEMENT, TYPE=C3D3
2866, 5370, 5405, 5414
*ELEMENT, TYPE=C3D3
2867, 5164, 5199, 5209
*ELEMENT, TYPE=C3D3
2868, 5141, 5153, 5107
*ELEMENT, TYPE=C3D3
2869, 5429, 5395, 5383
*ELEMENT, TYPE=C3D3
2870, 5414, 5405, 5450
*ELEMENT, TYPE=C3D3
2871, 5209, 5199, 5245
*ELEMENT, TYPE=C3D3
2872, 5107, 5153, 5117
*ELEMENT, TYPE=C3D3
2873, 5429, 5383, 5421
*ELEMENT, TYPE=C3D3
2874, 5450, 5405, 5440
*ELEMENT, TYPE=C3D3
2875, 5117, 5153, 5164
*ELEMENT, TYPE=C3D3
2876, 5107, 5117, 5074
*ELEMENT, TYPE=C3D3
2877, 5421, 5383, 5377
*ELEMENT, TYPE=C3D3
2878, 5450, 5440, 5486
*ELEMENT, TYPE=C3D3
2879, 5074, 5117, 5083
*ELEMENT, TYPE=C3D3
2880, 5486, 5440, 5475
*ELEMENT, TYPE=C3D3
2881, 5450, 5486, 5496
*ELEMENT, TYPE=C3D3
2882, 5083, 5117, 5128
*ELEMENT, TYPE=C3D3
2883, 5475, 5440, 5429
*ELEMENT, TYPE=C3D3
2884, 5496, 5486, 5523
*ELEMENT, TYPE=C3D3
2885, 5128, 5117, 5164
*ELEMENT, TYPE=C3D3
2886, 5083, 5128, 5088
*ELEMENT, TYPE=C3D3
2887, 5475, 5429, 5464
*ELEMENT, TYPE=C3D3
2888, 5523, 5486, 5516
*ELEMENT, TYPE=C3D3
2889, 5464, 5429, 5421
*ELEMENT, TYPE=C3D3
2890, 5475, 5464, 5509
*ELEMENT, TYPE=C3D3
2891, 5516, 5486, 5475
*ELEMENT, TYPE=C3D3
2892, 5523, 5516, 5543
*ELEMENT, TYPE=C3D3
2893, 5475, 5509, 5516
*ELEMENT, TYPE=C3D3
2894, 5543, 5516, 5537
*ELEMENT, TYPE=C3D3
2895, 5523, 5543, 5548
*ELEMENT, TYPE=C3D3
2896, 5516, 5509, 5537
*ELEMENT, TYPE=C3D3
2897, 5543, 5537, 5559
*ELEMENT, TYPE=C3D3
2898, 5548, 5543, 5564
*ELEMENT, TYPE=C3D3
2899, 5543, 5559, 5564
*ELEMENT, TYPE=C3D3
2900, 5548, 5564, 5568
*ELEMENT, TYPE=C3D3
2901, 5564, 5559, 5576
*ELEMENT, TYPE=C3D3
2902, 5568, 5564, 5579
*ELEMENT, TYPE=C3D3
2903, 5548, 5568, 5553
*ELEMENT, TYPE=C3D3
2904, 5564, 5576, 5579
*ELEMENT, TYPE=C3D3
2905, 5568, 5579, 5583
*ELEMENT, TYPE=C3D3
2906, 5553, 5568, 5572
*ELEMENT, TYPE=C3D3
2907, 5579, 5576, 5588
*ELEMENT, TYPE=C3D3
2908, 5583, 5579, 5590
*ELEMENT, TYPE=C3D3
2909, 5568, 5583, 5572
*ELEMENT, TYPE=C3D3
2910, 5590, 5579, 5588
*ELEMENT, TYPE=C3D3
2911, 5583, 5590, 5592
*ELEMENT, TYPE=C3D3
2912, 5572, 5583, 5586
*ELEMENT, TYPE=C3D3
2913, 5590, 5588, 5594
*ELEMENT, TYPE=C3D3
2914, 5592, 5590, 5597
*ELEMENT, TYPE=C3D3
2915, 5586, 5583, 5592
*ELEMENT, TYPE=C3D3
2916, 5572, 5586, 5575
*ELEMENT, TYPE=C3D3
2917, 5586, 5596, 5595
*ELEMENT, TYPE=C3D3
2918, 5575, 5586, 5587
*ELEMENT, TYPE=C3D3
2919, 5572, 5575, 5557
*ELEMENT, TYPE=C3D3
2920, 5587, 5586, 5595
*ELEMENT, TYPE=C3D3
2921, 5575, 5587, 5580
*ELEMENT, TYPE=C3D3
2922, 5557, 5575, 5563
*ELEMENT, TYPE=C3D3
2923, 5580, 5587, 5593
*ELEMENT, TYPE=C3D3
2924, 5575, 5580, 5563
*ELEMENT, TYPE=C3D3
2925, 5557, 5563, 5542
*ELEMENT, TYPE=C3D3
2926, 5563, 5580, 5567
*ELEMENT, TYPE=C3D3
2927, 5542, 5563, 5547
*ELEMENT, TYPE=C3D3
2928, 5557, 5542, 5534
*ELEMENT, TYPE=C3D3
2929, 5567, 5580, 5582
*ELEMENT, TYPE=C3D3
2930, 5563, 5567, 5547
*ELEMENT, TYPE=C3D3
2931, 5534, 5542, 5512
*ELEMENT, TYPE=C3D3
2932, 5582, 5580, 5593
*ELEMENT, TYPE=C3D3
2933, 5547, 5567, 5552
*ELEMENT, TYPE=C3D3
2934, 5512, 5542, 5514
*ELEMENT, TYPE=C3D3
2935, 5534, 5512, 5503
*ELEMENT, TYPE=C3D3
2936, 5552, 5567, 5571
*ELEMENT, TYPE=C3D3
2937, 5547, 5552, 5528
*ELEMENT, TYPE=C3D3
2938, 5514, 5542, 5547
*ELEMENT, TYPE=C3D3
2939, 5503, 5512, 5467
*ELEMENT, TYPE=C3D3
2940, 5571, 5567, 5582
*ELEMENT, TYPE=C3D3
2941, 5528, 5552, 5521
*ELEMENT, TYPE=C3D3
2942, 5528, 5521, 5493
*ELEMENT, TYPE=C3D3
2943, 5493, 5521, 5482
*ELEMENT, TYPE=C3D3
2944, 5493, 5482, 5448
*ELEMENT, TYPE=C3D3
2945, 5493, 5448, 5460
*ELEMENT, TYPE=C3D3
2946, 5528, 5493, 5514
*ELEMENT, TYPE=C3D3
2947, 5460, 5448, 5411
*ELEMENT, TYPE=C3D3
2948, 5493, 5460, 5514
*ELEMENT, TYPE=C3D3
2949, 5411, 5448, 5403
*ELEMENT, TYPE=C3D3
2950, 5460, 5411, 5428
*ELEMENT, TYPE=C3D3
2951, 5514, 5547, 5528
*ELEMENT, TYPE=C3D3
2952, 5467, 5512, 5484
*ELEMENT, TYPE=C3D3
2953, 5571, 5582, 5589
*ELEMENT, TYPE=C3D3
2954, 5484, 5512, 5514
*ELEMENT, TYPE=C3D3
2955, 5467, 5484, 5428
*ELEMENT, TYPE=C3D3
2956, 5484, 5514, 5460
*ELEMENT, TYPE=C3D3
2957, 5484, 5460, 5428
*ELEMENT, TYPE=C3D3
2958, 3291, 3332, 3335
*ELEMENT, TYPE=C3D3
2959, 3335, 3332, 3375
*ELEMENT, TYPE=C3D3
2960, 3291, 3335, 3293
*ELEMENT, TYPE=C3D3
2961, 3335, 3375, 3377
*ELEMENT, TYPE=C3D3
2962, 3293, 3335, 3338
*ELEMENT, TYPE=C3D3
2963, 3291, 3293, 3248
*ELEMENT, TYPE=C3D3
2964, 3377, 3375, 3421
*ELEMENT, TYPE=C3D3
2965, 3338, 3335, 3377
*ELEMENT, TYPE=C3D3
2966, 3248, 3293, 3253
*ELEMENT, TYPE=C3D3
2967, 3291, 3248, 3245
*ELEMENT, TYPE=C3D3
2968, 3253, 3293, 3296
*ELEMENT, TYPE=C3D3
2969, 3248, 3253, 3208
*ELEMENT, TYPE=C3D3
2970, 3296, 3293, 3338
*ELEMENT, TYPE=C3D3
2971, 3296, 3338, 3339
*ELEMENT, TYPE=C3D3
2972, 3339, 3338, 3381
*ELEMENT, TYPE=C3D3
2973, 3381, 3338, 3377
*ELEMENT, TYPE=C3D3
2974, 3339, 3381, 3384
*ELEMENT, TYPE=C3D3
2975, 3384, 3381, 3424
*ELEMENT, TYPE=C3D3
2976, 3384, 3424, 3429
*ELEMENT, TYPE=C3D3
2977, 3429, 3424, 3468
*ELEMENT, TYPE=C3D3
2978, 3429, 3468, 3471
*ELEMENT, TYPE=C3D3
2979, 3471, 3468, 3513
*ELEMENT, TYPE=C3D3
2980, 3513, 3468, 3510
*ELEMENT, TYPE=C3D3
2981, 3471, 3513, 3515
*ELEMENT, TYPE=C3D3
2982, 3513, 3510, 3551
*ELEMENT, TYPE=C3D3
2983, 3515, 3513, 3557
*ELEMENT, TYPE=C3D3
2984, 3513, 3551, 3557
*ELEMENT, TYPE=C3D3
2985, 3557, 3551, 3596
*ELEMENT, TYPE=C3D3
2986, 3596, 3551, 3595
*ELEMENT, TYPE=C3D3
2987, 3557, 3596, 3599
*ELEMENT, TYPE=C3D3
2988, 3596, 3595, 3636
*ELEMENT, TYPE=C3D3
2989, 3599, 3596, 3640
*ELEMENT, TYPE=C3D3
2990, 3557, 3599, 3560
*ELEMENT, TYPE=C3D3
2991, 3636, 3595, 3632
*ELEMENT, TYPE=C3D3
2992, 3640, 3596, 3636
*ELEMENT, TYPE=C3D3
2993, 3560, 3599, 3605
*ELEMENT, TYPE=C3D3
2994, 3636, 3632, 3678
*ELEMENT, TYPE=C3D3
2995, 3605, 3599, 3643
*ELEMENT, TYPE=C3D3
2996, 3678, 3632, 3674
*ELEMENT, TYPE=C3D3
2997, 3643, 3599, 3640
*ELEMENT, TYPE=C3D3
2998, 3605, 3643, 3650
*ELEMENT, TYPE=C3D3
2999, 3643, 3640, 3684
*ELEMENT, TYPE=C3D3
3000, 3650, 3643, 3688
*ELEMENT, TYPE=C3D3
3001, 3684, 3640, 3679
*ELEMENT, TYPE=C3D3
3002, 3643, 3684, 3688
*ELEMENT, TYPE=C3D3
3003, 3679, 3640, 3636
*ELEMENT, TYPE=C3D3
3004, 3688, 3684, 3728
*ELEMENT, TYPE=C3D3
3005, 3679, 3636, 3678
*ELEMENT, TYPE=C3D3
3006, 3728, 3684, 3724
*ELEMENT, TYPE=C3D3
3007, 3679, 3678, 3721
*ELEMENT, TYPE=C3D3
3008, 3724, 3684, 3679
*ELEMENT, TYPE=C3D3
3009, 3721, 3678, 3718
*ELEMENT, TYPE=C3D3
3010, 3679, 3721, 3724
*ELEMENT, TYPE=C3D3
3011, 3718, 3678, 3674
*ELEMENT, TYPE=C3D3
3012, 3724, 3721, 3765
*ELEMENT, TYPE=C3D3
3013, 3718, 3674, 3716
*ELEMENT, TYPE=C3D3
3014, 3765, 3721, 3762
*ELEMENT, TYPE=C3D3
3015, 3716, 3674, 3672
*ELEMENT, TYPE=C3D3
3016, 3718, 3716, 3757
*ELEMENT, TYPE=C3D3
3017, 3762, 3721, 3718
*ELEMENT, TYPE=C3D3
3018, 3716, 3672, 3711
*ELEMENT, TYPE=C3D3
3019, 3718, 3757, 3762
*ELEMENT, TYPE=C3D3
3020, 3114, 3112, 3071
*ELEMENT, TYPE=C3D3
3021, 3114, 3071, 3074
*ELEMENT, TYPE=C3D3
3022, 3074, 3071, 3027
*ELEMENT, TYPE=C3D3
3023, 3114, 3074, 3116
*ELEMENT, TYPE=C3D3
3024, 3074, 3027, 3030
*ELEMENT, TYPE=C3D3
3025, 3116, 3074, 3076
*ELEMENT, TYPE=C3D3
3026, 3030, 3027, 2986
*ELEMENT, TYPE=C3D3
3027, 3074, 3030, 3076
*ELEMENT, TYPE=C3D3
3028, 3030, 2986, 2989
*ELEMENT, TYPE=C3D3
3029, 3076, 3030, 3034
*ELEMENT, TYPE=C3D3
3030, 2989, 2986, 2944
*ELEMENT, TYPE=C3D3
3031, 3030, 2989, 3034
*ELEMENT, TYPE=C3D3
3032, 2944, 2986, 2942
*ELEMENT, TYPE=C3D3
3033, 3034, 2989, 2992
*ELEMENT, TYPE=C3D3
3034, 2944, 2942, 2899
*ELEMENT, TYPE=C3D3
3035, 2992, 2989, 2946
*ELEMENT, TYPE=C3D3
3036, 3034, 2992, 3037
*ELEMENT, TYPE=C3D3
3037, 2899, 2942, 2896
*ELEMENT, TYPE=C3D3
3038, 2946, 2989, 2944
*ELEMENT, TYPE=C3D3
3039, 3037, 2992, 2996
*ELEMENT, TYPE=C3D3
3040, 2899, 2896, 2854
*ELEMENT, TYPE=C3D3
3041, 2996, 2992, 2950
*ELEMENT, TYPE=C3D3
3042, 3037, 2996, 3041
*ELEMENT, TYPE=C3D3
3043, 2854, 2896, 2852
*ELEMENT, TYPE=C3D3
3044, 2950, 2992, 2946
*ELEMENT, TYPE=C3D3
3045, 3041, 2996, 3000
*ELEMENT, TYPE=C3D3
3046, 2852, 2896, 2895
*ELEMENT, TYPE=C3D3
3047, 3000, 2996, 2953
*ELEMENT, TYPE=C3D3
3048, 3041, 3000, 3045
*ELEMENT, TYPE=C3D3
3049, 2953, 2996, 2950
*ELEMENT, TYPE=C3D3
3050, 3000, 2953, 2959
*ELEMENT, TYPE=C3D3
3051, 3045, 3000, 3004
*ELEMENT, TYPE=C3D3
3052, 2959, 2953, 2913
*ELEMENT, TYPE=C3D3
3053, 3000, 2959, 3004
*ELEMENT, TYPE=C3D3
3054, 2913, 2953, 2911
*ELEMENT, TYPE=C3D3
3055, 3004, 2959, 2964
*ELEMENT, TYPE=C3D3
3056, 2911, 2953, 2950
*ELEMENT, TYPE=C3D3
3057, 2913, 2911, 2869
*ELEMENT, TYPE=C3D3
3058, 2964, 2959, 2919
*ELEMENT, TYPE=C3D3
3059, 2869, 2911, 2865
*ELEMENT, TYPE=C3D3
3060, 2913, 2869, 2870
*ELEMENT, TYPE=C3D3
3061, 2919, 2959, 2913
*ELEMENT, TYPE=C3D3
3062, 2865, 2911, 2906
*ELEMENT, TYPE=C3D3
3063, 2870, 2869, 2826
*ELEMENT, TYPE=C3D3
3064, 2919, 2913, 2870
*ELEMENT, TYPE=C3D3
3065, 2906, 2911, 2950
*ELEMENT, TYPE=C3D3
3066, 2826, 2869, 2804
*ELEMENT, TYPE=C3D3
3067, 2906, 2950, 2946
*ELEMENT, TYPE=C3D3
3068, 2804, 2869, 2865
*ELEMENT, TYPE=C3D3
3069, 2906, 2946, 2903
*ELEMENT, TYPE=C3D3
3070, 2804, 2865, 2823
*ELEMENT, TYPE=C3D3
3071, 2903, 2946, 2944
*ELEMENT, TYPE=C3D3
3072, 2906, 2903, 2860
*ELEMENT, TYPE=C3D3
3073, 2823, 2865, 2860
*ELEMENT, TYPE=C3D3
3074, 2903, 2944, 2899
*ELEMENT, TYPE=C3D3
3075, 2860, 2903, 2856
*ELEMENT, TYPE=C3D3
3076, 2860, 2865, 2906
*ELEMENT, TYPE=C3D3
3077, 2856, 2903, 2899
*ELEMENT, TYPE=C3D3
3078, 2860, 2856, 2818
*ELEMENT, TYPE=C3D3
3079, 2856, 2899, 2854
*ELEMENT, TYPE=C3D3
3080, 2818, 2856, 2815
*ELEMENT, TYPE=C3D3
3081, 2856, 2854, 2815
*ELEMENT, TYPE=C3D3
3082, 2815, 2854, 2813
*ELEMENT, TYPE=C3D3
3083, 2813, 2854, 2852
*ELEMENT, TYPE=C3D3
3084, 2815, 2813, 2773
*ELEMENT, TYPE=C3D3
3085, 2813, 2852, 2811
*ELEMENT, TYPE=C3D3
3086, 2773, 2813, 2770
*ELEMENT, TYPE=C3D3
3087, 2811, 2852, 2853
*ELEMENT, TYPE=C3D3
3088, 2813, 2811, 2770
*ELEMENT, TYPE=C3D3
3089, 2853, 2852, 2895
*ELEMENT, TYPE=C3D3
3090, 2770, 2811, 2772
*ELEMENT, TYPE=C3D3
3091, 2853, 2895, 2898
*ELEMENT, TYPE=C3D3
3092, 2772, 2811, 2814
*ELEMENT, TYPE=C3D3
3093, 2898, 2895, 2941
*ELEMENT, TYPE=C3D3
3094, 2853, 2898, 2855
*ELEMENT, TYPE=C3D3
3095, 2814, 2811, 2853
*ELEMENT, TYPE=C3D3
3096, 2855, 2898, 2901
*ELEMENT, TYPE=C3D3
3097, 2853, 2855, 2814
*ELEMENT, TYPE=C3D3
3098, 2901, 2898, 2943
*ELEMENT, TYPE=C3D3
3099, 2814, 2855, 2817
*ELEMENT, TYPE=C3D3
3100, 2943, 2898, 2941
*ELEMENT, TYPE=C3D3
3101, 2901, 2943, 2945
*ELEMENT, TYPE=C3D3
3102, 2817, 2855, 2859
*ELEMENT, TYPE=C3D3
3103, 2945, 2943, 2987
*ELEMENT, TYPE=C3D3
3104, 2901, 2945, 2905
*ELEMENT, TYPE=C3D3
3105, 2859, 2855, 2901
*ELEMENT, TYPE=C3D3
3106, 2945, 2987, 2991
*ELEMENT, TYPE=C3D3
3107, 2905, 2945, 2949
*ELEMENT, TYPE=C3D3
3108, 2859, 2901, 2905
*ELEMENT, TYPE=C3D3
3109, 2991, 2987, 3032
*ELEMENT, TYPE=C3D3
3110, 2949, 2945, 2991
*ELEMENT, TYPE=C3D3
3111, 2991, 3032, 3036
*ELEMENT, TYPE=C3D3
3112, 2949, 2991, 2995
*ELEMENT, TYPE=C3D3
3113, 3036, 3032, 3077
*ELEMENT, TYPE=C3D3
3114, 2991, 3036, 2995
*ELEMENT, TYPE=C3D3
3115, 2995, 3036, 3039
*ELEMENT, TYPE=C3D3
3116, 2995, 3039, 2998
*ELEMENT, TYPE=C3D3
3117, 2998, 3039, 3043
*ELEMENT, TYPE=C3D3
3118, 2995, 2998, 2952
*ELEMENT, TYPE=C3D3
3119, 2998, 3043, 3002
*ELEMENT, TYPE=C3D3
3120, 2952, 2998, 2955
*ELEMENT, TYPE=C3D3
3121, 2995, 2952, 2949
*ELEMENT, TYPE=C3D3
3122, 3002, 3043, 3049
*ELEMENT, TYPE=C3D3
3123, 2955, 2998, 3002
*ELEMENT, TYPE=C3D3
3124, 2949, 2952, 2907
*ELEMENT, TYPE=C3D3
3125, 3049, 3043, 3089
*ELEMENT, TYPE=C3D3
3126, 2955, 3002, 2956
*ELEMENT, TYPE=C3D3
3127, 2907, 2952, 2893
*ELEMENT, TYPE=C3D3
3128, 3049, 3089, 3096
*ELEMENT, TYPE=C3D3
3129, 3096, 3089, 3133
*ELEMENT, TYPE=C3D3
3130, 3049, 3083, 3029
*ELEMENT, TYPE=C3D3
3131, 3096, 3133, 3137
*ELEMENT, TYPE=C3D3
3132, 3137, 3133, 3179
*ELEMENT, TYPE=C3D3
3133, 3096, 3137, 3083
*ELEMENT, TYPE=C3D3
3134, 3096, 3083, 3049
*ELEMENT, TYPE=C3D3
3135, 3179, 3133, 3175
*ELEMENT, TYPE=C3D3
3136, 3515, 3557, 3560
*ELEMENT, TYPE=C3D3
3137, 3114, 3116, 3159
*ELEMENT, TYPE=C3D3
3138, 3159, 3116, 3162
*ELEMENT, TYPE=C3D3
3139, 3162, 3116, 3121
*ELEMENT, TYPE=C3D3
3140, 3121, 3116, 3076
*ELEMENT, TYPE=C3D3
3141, 3162, 3121, 3164
*ELEMENT, TYPE=C3D3
3142, 3164, 3121, 3124
*ELEMENT, TYPE=C3D3
3143, 3162, 3164, 3207
*ELEMENT, TYPE=C3D3
3144, 3124, 3121, 3078
*ELEMENT, TYPE=C3D3
3145, 3207, 3164, 3209
*ELEMENT, TYPE=C3D3
3146, 3078, 3121, 3076
*ELEMENT, TYPE=C3D3
3147, 3124, 3078, 3082
*ELEMENT, TYPE=C3D3
3148, 3209, 3164, 3169
*ELEMENT, TYPE=C3D3
3149, 3078, 3076, 3034
*ELEMENT, TYPE=C3D3
3150, 3082, 3078, 3037
*ELEMENT, TYPE=C3D3
3151, 3169, 3164, 3124
*ELEMENT, TYPE=C3D3
3152, 3078, 3034, 3037
*ELEMENT, TYPE=C3D3
3153, 3169, 3124, 3128
*ELEMENT, TYPE=C3D3
3154, 3128, 3124, 3082
*ELEMENT, TYPE=C3D3
3155, 3128, 3082, 3086
*ELEMENT, TYPE=C3D3
3156, 3086, 3082, 3041
*ELEMENT, TYPE=C3D3
3157, 3041, 3082, 3037
*ELEMENT, TYPE=C3D3
3158, 3086, 3041, 3045
*ELEMENT, TYPE=C3D3
3159, 3207, 3209, 3250
*ELEMENT, TYPE=C3D3
3160, 3207, 3250, 3247
*ELEMENT, TYPE=C3D3
3161, 3247, 3250, 3292
*ELEMENT, TYPE=C3D3
3162, 3247, 3292, 3290
*ELEMENT, TYPE=C3D3
3163, 3290, 3292, 3333
*ELEMENT, TYPE=C3D3
3164, 3247, 3290, 3244
*ELEMENT, TYPE=C3D3
3165, 3244, 3290, 3287
*ELEMENT, TYPE=C3D3
3166, 5545, 5560, 5538
*ELEMENT, TYPE=C3D3
3167, 5538, 5560, 5555
*ELEMENT, TYPE=C3D3
3168, 5545, 5538, 5517
*ELEMENT, TYPE=C3D3
3169, 5555, 5560, 5573
*ELEMENT, TYPE=C3D3
3170, 5538, 5555, 5532
*ELEMENT, TYPE=C3D3
3171, 5517, 5538, 5507
*ELEMENT, TYPE=C3D3
3172, 5573, 5560, 5577
*ELEMENT, TYPE=C3D3
3173, 5532, 5555, 5551
*ELEMENT, TYPE=C3D3
3174, 5517, 5507, 5477
*ELEMENT, TYPE=C3D3
3175, 5551, 5555, 5569
*ELEMENT, TYPE=C3D3
3176, 5532, 5551, 5526
*ELEMENT, TYPE=C3D3
3177, 5477, 5507, 5463
*ELEMENT, TYPE=C3D3
3178, 5569, 5555, 5573
*ELEMENT, TYPE=C3D3
3179, 5526, 5551, 5546
*ELEMENT, TYPE=C3D3
3180, 5463, 5507, 5500
*ELEMENT, TYPE=C3D3
3181, 5546, 5551, 5566
*ELEMENT, TYPE=C3D3
3182, 5500, 5507, 5532
*ELEMENT, TYPE=C3D3
3183, 5566, 5551, 5569
*ELEMENT, TYPE=C3D3
3184, 5546, 5566, 5561
*ELEMENT, TYPE=C3D3
3185, 5532, 5507, 5538
*ELEMENT, TYPE=C3D3
3186, 5546, 5561, 5541
*ELEMENT, TYPE=C3D3
3187, 5541, 5561, 5558
*ELEMENT, TYPE=C3D3
3188, 5546, 5541, 5520
*ELEMENT, TYPE=C3D3
3189, 5541, 5558, 5535
*ELEMENT, TYPE=C3D3
3190, 5520, 5541, 5511
*ELEMENT, TYPE=C3D3
3191, 5535, 5558, 5554
*ELEMENT, TYPE=C3D3
3192, 5541, 5535, 5511
*ELEMENT, TYPE=C3D3
3193, 5535, 5554, 5530
*ELEMENT, TYPE=C3D3
3194, 5511, 5535, 5504
*ELEMENT, TYPE=C3D3
3195, 5530, 5554, 5549
*ELEMENT, TYPE=C3D3
3196, 5535, 5530, 5504
*ELEMENT, TYPE=C3D3
3197, 5530, 5549, 5524
*ELEMENT, TYPE=C3D3
3198, 5504, 5530, 5497
*ELEMENT, TYPE=C3D3
3199, 5524, 5549, 5544
*ELEMENT, TYPE=C3D3
3200, 5530, 5524, 5497
*ELEMENT, TYPE=C3D3
3201, 5524, 5544, 5518
*ELEMENT, TYPE=C3D3
3202, 5497, 5524, 5489
*ELEMENT, TYPE=C3D3
3203, 5518, 5544, 5540
*ELEMENT, TYPE=C3D3
3204, 5524, 5518, 5489
*ELEMENT, TYPE=C3D3
3205, 5518, 5540, 5513
*ELEMENT, TYPE=C3D3
3206, 5489, 5518, 5479
*ELEMENT, TYPE=C3D3
3207, 5513, 5540, 5536
*ELEMENT, TYPE=C3D3
3208, 5518, 5513, 5479
*ELEMENT, TYPE=C3D3
3209, 5513, 5536, 5506
*ELEMENT, TYPE=C3D3
3210, 5479, 5513, 5469
*ELEMENT, TYPE=C3D3
3211, 5506, 5536, 5531
*ELEMENT, TYPE=C3D3
3212, 5513, 5506, 5469
*ELEMENT, TYPE=C3D3
3213, 5506, 5531, 5499
*ELEMENT, TYPE=C3D3
3214, 5469, 5506, 5461
*ELEMENT, TYPE=C3D3
3215, 5499, 5531, 5527
*ELEMENT, TYPE=C3D3
3216, 5506, 5499, 5461
*ELEMENT, TYPE=C3D3
3217, 5499, 5527, 5494
*ELEMENT, TYPE=C3D3
3218, 5461, 5499, 5456
*ELEMENT, TYPE=C3D3
3219, 5494, 5527, 5522
*ELEMENT, TYPE=C3D3
3220, 5499, 5494, 5456
*ELEMENT, TYPE=C3D3
3221, 5494, 5522, 5488
*ELEMENT, TYPE=C3D3
3222, 5456, 5494, 5449
*ELEMENT, TYPE=C3D3
3223, 5488, 5522, 5519
*ELEMENT, TYPE=C3D3
3224, 5494, 5488, 5449
*ELEMENT, TYPE=C3D3
3225, 5488, 5519, 5480
*ELEMENT, TYPE=C3D3
3226, 5449, 5488, 5442
*ELEMENT, TYPE=C3D3
3227, 5480, 5519, 5515
*ELEMENT, TYPE=C3D3
3228, 5488, 5480, 5442
*ELEMENT, TYPE=C3D3
3229, 5480, 5515, 5472
*ELEMENT, TYPE=C3D3
3230, 5442, 5480, 5437
*ELEMENT, TYPE=C3D3
3231, 5472, 5515, 5508
*ELEMENT, TYPE=C3D3
3232, 5480, 5472, 5437
*ELEMENT, TYPE=C3D3
3233, 5472, 5508, 5466
*ELEMENT, TYPE=C3D3
3234, 5437, 5472, 5427
*ELEMENT, TYPE=C3D3
3235, 5466, 5508, 5505
*ELEMENT, TYPE=C3D3
3236, 5472, 5466, 5427
*ELEMENT, TYPE=C3D3
3237, 5466, 5505, 5462
*ELEMENT, TYPE=C3D3
3238, 5427, 5466, 5423
*ELEMENT, TYPE=C3D3
3239, 5462, 5505, 5502
*ELEMENT, TYPE=C3D3
3240, 5466, 5462, 5423
*ELEMENT, TYPE=C3D3
3241, 5462, 5502, 5457
*ELEMENT, TYPE=C3D3
3242, 5423, 5462, 5418
*ELEMENT, TYPE=C3D3
3243, 5457, 5502, 5498
*ELEMENT, TYPE=C3D3
3244, 5462, 5457, 5418
*ELEMENT, TYPE=C3D3
3245, 5457, 5498, 5453
*ELEMENT, TYPE=C3D3
3246, 5418, 5457, 5415
*ELEMENT, TYPE=C3D3
3247, 5453, 5498, 5495
*ELEMENT, TYPE=C3D3
3248, 5457, 5453, 5415
*ELEMENT, TYPE=C3D3
3249, 5453, 5495, 5451
*ELEMENT, TYPE=C3D3
3250, 5415, 5453, 5412
*ELEMENT, TYPE=C3D3
3251, 5451, 5495, 5491
*ELEMENT, TYPE=C3D3
3252, 5453, 5451, 5412
*ELEMENT, TYPE=C3D3
3253, 5451, 5491, 5447
*ELEMENT, TYPE=C3D3
3254, 5412, 5451, 5408
*ELEMENT, TYPE=C3D3
3255, 5447, 5491, 5487
*ELEMENT, TYPE=C3D3
3256, 5451, 5447, 5408
*ELEMENT, TYPE=C3D3
3257, 5447, 5487, 5444
*ELEMENT, TYPE=C3D3
3258, 5408, 5447, 5404
*ELEMENT, TYPE=C3D3
3259, 5444, 5487, 5485
*ELEMENT, TYPE=C3D3
3260, 5447, 5444, 5404
*ELEMENT, TYPE=C3D3
3261, 5444, 5485, 5441
*ELEMENT, TYPE=C3D3
3262, 5404, 5444, 5402
*ELEMENT, TYPE=C3D3
3263, 5441, 5485, 5483
*ELEMENT, TYPE=C3D3
3264, 5444, 5441, 5402
*ELEMENT, TYPE=C3D3
3265, 5441, 5483, 5439
*ELEMENT, TYPE=C3D3
3266, 5402, 5441, 5399
*ELEMENT, TYPE=C3D3
3267, 5439, 5483, 5478
*ELEMENT, TYPE=C3D3
3268, 5441, 5439, 5399
*ELEMENT, TYPE=C3D3
3269, 5439, 5478, 5438
*ELEMENT, TYPE=C3D3
3270, 5399, 5439, 5396
*ELEMENT, TYPE=C3D3
3271, 5438, 5478, 5476
*ELEMENT, TYPE=C3D3
3272, 5439, 5438, 5396
*ELEMENT, TYPE=C3D3
3273, 5438, 5476, 5435
*ELEMENT, TYPE=C3D3
3274, 5396, 5438, 5394
*ELEMENT, TYPE=C3D3
3275, 5435, 5476, 5474
*ELEMENT, TYPE=C3D3
3276, 5438, 5435, 5394
*ELEMENT, TYPE=C3D3
3277, 5435, 5474, 5432
*ELEMENT, TYPE=C3D3
3278, 5394, 5435, 5393
*ELEMENT, TYPE=C3D3
3279, 5432, 5474, 5473
*ELEMENT, TYPE=C3D3
3280, 5435, 5432, 5393
*ELEMENT, TYPE=C3D3
3281, 5432, 5473, 5430
*ELEMENT, TYPE=C3D3
3282, 5393, 5432, 5391
*ELEMENT, TYPE=C3D3
3283, 5430, 5473, 5471
*ELEMENT, TYPE=C3D3
3284, 5432, 5430, 5391
*ELEMENT, TYPE=C3D3
3285, 5430, 5471, 5425
*ELEMENT, TYPE=C3D3
3286, 5391, 5430, 5390
*ELEMENT, TYPE=C3D3
3287, 5390, 5430, 5425
*ELEMENT, TYPE=C3D3
3288, 5391, 5390, 5349
*ELEMENT, TYPE=C3D3
3289, 5349, 5378, 5332
*ELEMENT, TYPE=C3D3
3290, 5391, 5349, 5348
*ELEMENT, TYPE=C3D3
3291, 5348, 5349, 5309
*ELEMENT, TYPE=C3D3
3292, 5391, 5348, 5393
*ELEMENT, TYPE=C3D3
3293, 5309, 5349, 5306
*ELEMENT, TYPE=C3D3
3294, 5348, 5309, 5311
*ELEMENT, TYPE=C3D3
3295, 5393, 5348, 5351
*ELEMENT, TYPE=C3D3
3296, 5306, 5349, 5332
*ELEMENT, TYPE=C3D3
3297, 5311, 5309, 5266
*ELEMENT, TYPE=C3D3
3298, 5351, 5348, 5311
*ELEMENT, TYPE=C3D3
3299, 5266, 5309, 5269
*ELEMENT, TYPE=C3D3
3300, 5311, 5266, 5268
*ELEMENT, TYPE=C3D3
3301, 5269, 5309, 5306
*ELEMENT, TYPE=C3D3
3302, 5266, 5269, 5225
*ELEMENT, TYPE=C3D3
3303, 5268, 5266, 5227
*ELEMENT, TYPE=C3D3
3304, 5225, 5269, 5224
*ELEMENT, TYPE=C3D3
3305, 5266, 5225, 5227
*ELEMENT, TYPE=C3D3
3306, 5224, 5269, 5283
*ELEMENT, TYPE=C3D3
3307, 5227, 5225, 5185
*ELEMENT, TYPE=C3D3
3308, 5185, 5225, 5184
*ELEMENT, TYPE=C3D3
3309, 5227, 5185, 5186
*ELEMENT, TYPE=C3D3
3310, 5184, 5225, 5224
*ELEMENT, TYPE=C3D3
3311, 5185, 5184, 5143
*ELEMENT, TYPE=C3D3
3312, 5186, 5185, 5144
*ELEMENT, TYPE=C3D3
3313, 5143, 5184, 5142
*ELEMENT, TYPE=C3D3
3314, 5185, 5143, 5144
*ELEMENT, TYPE=C3D3
3315, 5142, 5184, 5187
*ELEMENT, TYPE=C3D3
3316, 5144, 5143, 5103
*ELEMENT, TYPE=C3D3
3317, 5103, 5143, 5099
*ELEMENT, TYPE=C3D3
3318, 5144, 5103, 5105
*ELEMENT, TYPE=C3D3
3319, 5099, 5143, 5142
*ELEMENT, TYPE=C3D3
3320, 5103, 5099, 5060
*ELEMENT, TYPE=C3D3
3321, 5105, 5103, 5062
*ELEMENT, TYPE=C3D3
3322, 5099, 5142, 5094
*ELEMENT, TYPE=C3D3
3323, 5060, 5099, 5059
*ELEMENT, TYPE=C3D3
3324, 5062, 5103, 5060
*ELEMENT, TYPE=C3D3
3325, 5059, 5099, 5094
*ELEMENT, TYPE=C3D3
3326, 5060, 5059, 5019
*ELEMENT, TYPE=C3D3
3327, 5019, 5046, 4999
*ELEMENT, TYPE=C3D3
3328, 5060, 5019, 5022
*ELEMENT, TYPE=C3D3
3329, 5022, 5019, 4979
*ELEMENT, TYPE=C3D3
3330, 5060, 5022, 5062
*ELEMENT, TYPE=C3D3
3331, 4979, 5019, 4977
*ELEMENT, TYPE=C3D3
3332, 5022, 4979, 4980
*ELEMENT, TYPE=C3D3
3333, 5062, 5022, 5024
*ELEMENT, TYPE=C3D3
3334, 4979, 4977, 4939
*ELEMENT, TYPE=C3D3
3335, 4980, 4979, 4935
*ELEMENT, TYPE=C3D3
3336, 5024, 5022, 4980
*ELEMENT, TYPE=C3D3
3337, 4939, 4977, 4951
*ELEMENT, TYPE=C3D3
3338, 4935, 4979, 4939
*ELEMENT, TYPE=C3D3
3339, 4935, 4939, 4897
*ELEMENT, TYPE=C3D3
3340, 4897, 4939, 4896
*ELEMENT, TYPE=C3D3
3341, 4935, 4897, 4898
*ELEMENT, TYPE=C3D3
3342, 4896, 4939, 4951
*ELEMENT, TYPE=C3D3
3343, 4898, 4897, 4854
*ELEMENT, TYPE=C3D3
3344, 4935, 4898, 4940
*ELEMENT, TYPE=C3D3
3345, 4854, 4897, 4859
*ELEMENT, TYPE=C3D3
3346, 4898, 4854, 4856
*ELEMENT, TYPE=C3D3
3347, 4940, 4898, 4900
*ELEMENT, TYPE=C3D3
3348, 4859, 4897, 4896
*ELEMENT, TYPE=C3D3
3349, 4856, 4854, 4815
*ELEMENT, TYPE=C3D3
3350, 4900, 4898, 4856
*ELEMENT, TYPE=C3D3
3351, 4940, 4900, 4943
*ELEMENT, TYPE=C3D3
3352, 4815, 4854, 4812
*ELEMENT, TYPE=C3D3
3353, 4856, 4815, 4818
*ELEMENT, TYPE=C3D3
3354, 4943, 4900, 4902
*ELEMENT, TYPE=C3D3
3355, 4940, 4943, 4982
*ELEMENT, TYPE=C3D3
3356, 4812, 4854, 4859
*ELEMENT, TYPE=C3D3
3357, 4818, 4815, 4774
*ELEMENT, TYPE=C3D3
3358, 4902, 4900, 4860
*ELEMENT, TYPE=C3D3
3359, 4982, 4943, 4986
*ELEMENT, TYPE=C3D3
3360, 4774, 4815, 4779
*ELEMENT, TYPE=C3D3
3361, 4818, 4774, 4777
*ELEMENT, TYPE=C3D3
3362, 4860, 4900, 4856
*ELEMENT, TYPE=C3D3
3363, 4986, 4943, 4944
*ELEMENT, TYPE=C3D3
3364, 4779, 4815, 4812
*ELEMENT, TYPE=C3D3
3365, 4777, 4774, 4733
*ELEMENT, TYPE=C3D3
3366, 4944, 4943, 4902
*ELEMENT, TYPE=C3D3
3367, 4986, 4944, 4987
*ELEMENT, TYPE=C3D3
3368, 4733, 4774, 4731
*ELEMENT, TYPE=C3D3
3369, 4777, 4733, 4737
*ELEMENT, TYPE=C3D3
3370, 4987, 4944, 4948
*ELEMENT, TYPE=C3D3
3371, 4986, 4987, 5027
*ELEMENT, TYPE=C3D3
3372, 4731, 4774, 4779
*ELEMENT, TYPE=C3D3
3373, 4737, 4733, 4695
*ELEMENT, TYPE=C3D3
3374, 4948, 4944, 4906
*ELEMENT, TYPE=C3D3
3375, 5027, 4987, 5032
*ELEMENT, TYPE=C3D3
3376, 4695, 4733, 4693
*ELEMENT, TYPE=C3D3
3377, 4737, 4695, 4698
*ELEMENT, TYPE=C3D3
3378, 4906, 4944, 4902
*ELEMENT, TYPE=C3D3
3379, 5032, 4987, 4991
*ELEMENT, TYPE=C3D3
3380, 4693, 4733, 4731
*ELEMENT, TYPE=C3D3
3381, 4698, 4695, 4653
*ELEMENT, TYPE=C3D3
3382, 4991, 4987, 4948
*ELEMENT, TYPE=C3D3
3383, 5032, 4991, 5033
*ELEMENT, TYPE=C3D3
3384, 4653, 4695, 4651
*ELEMENT, TYPE=C3D3
3385, 4698, 4653, 4657
*ELEMENT, TYPE=C3D3
3386, 5033, 4991, 4995
*ELEMENT, TYPE=C3D3
3387, 5032, 5033, 5073
*ELEMENT, TYPE=C3D3
3388, 4651, 4695, 4693
*ELEMENT, TYPE=C3D3
3389, 4657, 4653, 4614
*ELEMENT, TYPE=C3D3
3390, 4995, 4991, 4952
*ELEMENT, TYPE=C3D3
3391, 5073, 5033, 5077
*ELEMENT, TYPE=C3D3
3392, 4614, 4653, 4610
*ELEMENT, TYPE=C3D3
3393, 4657, 4614, 4619
*ELEMENT, TYPE=C3D3
3394, 4952, 4991, 4948
*ELEMENT, TYPE=C3D3
3395, 5077, 5033, 5037
*ELEMENT, TYPE=C3D3
3396, 4610, 4653, 4651
*ELEMENT, TYPE=C3D3
3397, 4657, 4619, 4660
*ELEMENT, TYPE=C3D3
3398, 5037, 5033, 4995
*ELEMENT, TYPE=C3D3
3399, 5077, 5037, 5080
*ELEMENT, TYPE=C3D3
3400, 4660, 4619, 4622
*ELEMENT, TYPE=C3D3
3401, 4657, 4660, 4699
*ELEMENT, TYPE=C3D3
3402, 5080, 5037, 5041
*ELEMENT, TYPE=C3D3
3403, 5077, 5080, 5120
*ELEMENT, TYPE=C3D3
3404, 4660, 4622, 4664
*ELEMENT, TYPE=C3D3
3405, 4699, 4660, 4703
*ELEMENT, TYPE=C3D3
3406, 5041, 5037, 4997
*ELEMENT, TYPE=C3D3
3407, 5120, 5080, 5122
*ELEMENT, TYPE=C3D3
3408, 4664, 4622, 4626
*ELEMENT, TYPE=C3D3
3409, 4703, 4660, 4664
*ELEMENT, TYPE=C3D3
3410, 4997, 5037, 4995
*ELEMENT, TYPE=C3D3
3411, 5122, 5080, 5084
*ELEMENT, TYPE=C3D3
3412, 4626, 4622, 4582
*ELEMENT, TYPE=C3D3
3413, 4703, 4664, 4705
*ELEMENT, TYPE=C3D3
3414, 5084, 5080, 5041
*ELEMENT, TYPE=C3D3
3415, 5122, 5084, 5126
*ELEMENT, TYPE=C3D3
3416, 4705, 4664, 4668
*ELEMENT, TYPE=C3D3
3417, 4703, 4705, 4746
*ELEMENT, TYPE=C3D3
3418, 5126, 5084, 5087
*ELEMENT, TYPE=C3D3
3419, 5122, 5126, 5167
*ELEMENT, TYPE=C3D3
3420, 4668, 4664, 4626
*ELEMENT, TYPE=C3D3
3421, 4746, 4705, 4749
*ELEMENT, TYPE=C3D3
3422, 5087, 5084, 5044
*ELEMENT, TYPE=C3D3
3423, 5167, 5126, 5169
*ELEMENT, TYPE=C3D3
3424, 4749, 4705, 4709
*ELEMENT, TYPE=C3D3
3425, 4746, 4749, 4790
*ELEMENT, TYPE=C3D3
3426, 5044, 5084, 5041
*ELEMENT, TYPE=C3D3
3427, 5169, 5126, 5131
*ELEMENT, TYPE=C3D3
3428, 4709, 4705, 4668
*ELEMENT, TYPE=C3D3
3429, 4790, 4749, 4793
*ELEMENT, TYPE=C3D3
3430, 5131, 5126, 5087
*ELEMENT, TYPE=C3D3
3431, 5169, 5131, 5174
*ELEMENT, TYPE=C3D3
3432, 4793, 4749, 4753
*ELEMENT, TYPE=C3D3
3433, 4790, 4793, 4834
*ELEMENT, TYPE=C3D3
3434, 5174, 5131, 5135
*ELEMENT, TYPE=C3D3
3435, 5169, 5174, 5213
*ELEMENT, TYPE=C3D3
3436, 4753, 4749, 4709
*ELEMENT, TYPE=C3D3
3437, 4834, 4793, 4837
*ELEMENT, TYPE=C3D3
3438, 5135, 5131, 5092
*ELEMENT, TYPE=C3D3
3439, 5213, 5174, 5217
*ELEMENT, TYPE=C3D3
3440, 4837, 4793, 4797
*ELEMENT, TYPE=C3D3
3441, 4834, 4837, 4876
*ELEMENT, TYPE=C3D3
3442, 5092, 5131, 5087
*ELEMENT, TYPE=C3D3
3443, 5217, 5174, 5177
*ELEMENT, TYPE=C3D3
3444, 4797, 4793, 4753
*ELEMENT, TYPE=C3D3
3445, 4876, 4837, 4879
*ELEMENT, TYPE=C3D3
3446, 5177, 5174, 5135
*ELEMENT, TYPE=C3D3
3447, 5217, 5177, 5221
*ELEMENT, TYPE=C3D3
3448, 4879, 4837, 4841
*ELEMENT, TYPE=C3D3
3449, 4876, 4879, 4919
*ELEMENT, TYPE=C3D3
3450, 5221, 5177, 5183
*ELEMENT, TYPE=C3D3
3451, 5217, 5221, 5260
*ELEMENT, TYPE=C3D3
3452, 4841, 4837, 4797
*ELEMENT, TYPE=C3D3
3453, 4919, 4879, 4924
*ELEMENT, TYPE=C3D3
3454, 5183, 5177, 5140
*ELEMENT, TYPE=C3D3
3455, 5260, 5221, 5265
*ELEMENT, TYPE=C3D3
3456, 4924, 4879, 4883
*ELEMENT, TYPE=C3D3
3457, 4919, 4924, 4962
*ELEMENT, TYPE=C3D3
3458, 5140, 5177, 5135
*ELEMENT, TYPE=C3D3
3459, 5265, 5221, 5229
*ELEMENT, TYPE=C3D3
3460, 4883, 4879, 4841
*ELEMENT, TYPE=C3D3
3461, 4962, 4924, 4966
*ELEMENT, TYPE=C3D3
3462, 5229, 5221, 5183
*ELEMENT, TYPE=C3D3
3463, 5265, 5229, 5273
*ELEMENT, TYPE=C3D3
3464, 4966, 4924, 4927
*ELEMENT, TYPE=C3D3
3465, 4962, 4966, 5006
*ELEMENT, TYPE=C3D3
3466, 5273, 5229, 5235
*ELEMENT, TYPE=C3D3
3467, 5265, 5273, 5312
*ELEMENT, TYPE=C3D3
3468, 4927, 4924, 4883
*ELEMENT, TYPE=C3D3
3469, 5006, 4966, 5010
*ELEMENT, TYPE=C3D3
3470, 5235, 5229, 5190
*ELEMENT, TYPE=C3D3
3471, 5312, 5273, 5317
*ELEMENT, TYPE=C3D3
3472, 5010, 4966, 4969
*ELEMENT, TYPE=C3D3
3473, 5006, 5010, 5049
*ELEMENT, TYPE=C3D3
3474, 5190, 5229, 5183
*ELEMENT, TYPE=C3D3
3475, 5317, 5273, 5280
*ELEMENT, TYPE=C3D3
3476, 4969, 4966, 4927
*ELEMENT, TYPE=C3D3
3477, 5049, 5010, 5053
*ELEMENT, TYPE=C3D3
3478, 5280, 5273, 5235
*ELEMENT, TYPE=C3D3
3479, 5317, 5280, 5324
*ELEMENT, TYPE=C3D3
3480, 5053, 5010, 5014
*ELEMENT, TYPE=C3D3
3481, 5049, 5053, 5092
*ELEMENT, TYPE=C3D3
3482, 5324, 5280, 5286
*ELEMENT, TYPE=C3D3
3483, 5317, 5324, 5361
*ELEMENT, TYPE=C3D3
3484, 5014, 5010, 4969
*ELEMENT, TYPE=C3D3
3485, 5092, 5053, 5096
*ELEMENT, TYPE=C3D3
3486, 5286, 5280, 5242
*ELEMENT, TYPE=C3D3
3487, 5361, 5324, 5367
*ELEMENT, TYPE=C3D3
3488, 5096, 5053, 5058
*ELEMENT, TYPE=C3D3
3489, 5092, 5096, 5135
*ELEMENT, TYPE=C3D3
3490, 5242, 5280, 5235
*ELEMENT, TYPE=C3D3
3491, 5367, 5324, 5331
*ELEMENT, TYPE=C3D3
3492, 5058, 5053, 5014
*ELEMENT, TYPE=C3D3
3493, 5135, 5096, 5140
*ELEMENT, TYPE=C3D3
3494, 5331, 5324, 5286
*ELEMENT, TYPE=C3D3
3495, 5367, 5331, 5373
*ELEMENT, TYPE=C3D3
3496, 5140, 5096, 5102
*ELEMENT, TYPE=C3D3
3497, 5373, 5331, 5337
*ELEMENT, TYPE=C3D3
3498, 5367, 5373, 5413
*ELEMENT, TYPE=C3D3
3499, 5102, 5096, 5058
*ELEMENT, TYPE=C3D3
3500, 5337, 5331, 5292
*ELEMENT, TYPE=C3D3
3501, 5373, 5337, 5382
*ELEMENT, TYPE=C3D3
3502, 5413, 5373, 5417
*ELEMENT, TYPE=C3D3
3503, 5102, 5058, 5065
*ELEMENT, TYPE=C3D3
3504, 5292, 5331, 5286
*ELEMENT, TYPE=C3D3
3505, 5382, 5337, 5345
*ELEMENT, TYPE=C3D3
3506, 5417, 5373, 5382
*ELEMENT, TYPE=C3D3
3507, 5065, 5058, 5021
*ELEMENT, TYPE=C3D3
3508, 5345, 5337, 5301
*ELEMENT, TYPE=C3D3
3509, 5382, 5345, 5389
*ELEMENT, TYPE=C3D3
3510, 5417, 5382, 5426
*ELEMENT, TYPE=C3D3
3511, 5021, 5058, 5014
*ELEMENT, TYPE=C3D3
3512, 5301, 5337, 5292
*ELEMENT, TYPE=C3D3
3513, 5389, 5345, 5352
*ELEMENT, TYPE=C3D3
3514, 5426, 5382, 5389
*ELEMENT, TYPE=C3D3
3515, 5021, 5014, 4976
*ELEMENT, TYPE=C3D3
3516, 5352, 5345, 5305
*ELEMENT, TYPE=C3D3
3517, 5389, 5352, 5398
*ELEMENT, TYPE=C3D3
3518, 5426, 5389, 5433
*ELEMENT, TYPE=C3D3
3519, 4976, 5014, 4969
*ELEMENT, TYPE=C3D3
3520, 5305, 5345, 5301
*ELEMENT, TYPE=C3D3
3521, 5398, 5352, 5363
*ELEMENT, TYPE=C3D3
3522, 5433, 5389, 5398
*ELEMENT, TYPE=C3D3
3523, 4976, 4969, 4933
*ELEMENT, TYPE=C3D3
3524, 5363, 5352, 5318
*ELEMENT, TYPE=C3D3
3525, 5398, 5363, 5407
*ELEMENT, TYPE=C3D3
3526, 5433, 5398, 5443
*ELEMENT, TYPE=C3D3
3527, 4933, 4969, 4927
*ELEMENT, TYPE=C3D3
3528, 5318, 5352, 5305
*ELEMENT, TYPE=C3D3
3529, 5407, 5363, 5371
*ELEMENT, TYPE=C3D3
3530, 5443, 5398, 5407
*ELEMENT, TYPE=C3D3
3531, 4933, 4927, 4888
*ELEMENT, TYPE=C3D3
3532, 5371, 5363, 5327
*ELEMENT, TYPE=C3D3
3533, 5407, 5371, 5416
*ELEMENT, TYPE=C3D3
3534, 5443, 5407, 5452
*ELEMENT, TYPE=C3D3
3535, 4888, 4927, 4883
*ELEMENT, TYPE=C3D3
3536, 5327, 5363, 5318
*ELEMENT, TYPE=C3D3
3537, 5416, 5371, 5380
*ELEMENT, TYPE=C3D3
3538, 5452, 5407, 5416
*ELEMENT, TYPE=C3D3
3539, 4888, 4883, 4845
*ELEMENT, TYPE=C3D3
3540, 5380, 5371, 5336
*ELEMENT, TYPE=C3D3
3541, 5416, 5380, 5424
*ELEMENT, TYPE=C3D3
3542, 5452, 5416, 5459
*ELEMENT, TYPE=C3D3
3543, 4845, 4883, 4841
*ELEMENT, TYPE=C3D3
3544, 5336, 5371, 5327
*ELEMENT, TYPE=C3D3
3545, 5424, 5380, 5388
*ELEMENT, TYPE=C3D3
3546, 5459, 5416, 5424
*ELEMENT, TYPE=C3D3
3547, 4845, 4841, 4801
*ELEMENT, TYPE=C3D3
3548, 5388, 5380, 5344
*ELEMENT, TYPE=C3D3
3549, 5424, 5388, 5436
*ELEMENT, TYPE=C3D3
3550, 5459, 5424, 5468
*ELEMENT, TYPE=C3D3
3551, 4801, 4841, 4797
*ELEMENT, TYPE=C3D3
3552, 5344, 5380, 5336
*ELEMENT, TYPE=C3D3
3553, 5436, 5388, 5401
*ELEMENT, TYPE=C3D3
3554, 5468, 5424, 5436
*ELEMENT, TYPE=C3D3
3555, 4801, 4797, 4757
*ELEMENT, TYPE=C3D3
3556, 5401, 5388, 5354
*ELEMENT, TYPE=C3D3
3557, 5436, 5401, 5446
*ELEMENT, TYPE=C3D3
3558, 5468, 5436, 5481
*ELEMENT, TYPE=C3D3
3559, 4757, 4797, 4753
*ELEMENT, TYPE=C3D3
3560, 5354, 5388, 5344
*ELEMENT, TYPE=C3D3
3561, 5446, 5401, 5410
*ELEMENT, TYPE=C3D3
3562, 5481, 5436, 5446
*ELEMENT, TYPE=C3D3
3563, 4757, 4753, 4717
*ELEMENT, TYPE=C3D3
3564, 5410, 5401, 5366
*ELEMENT, TYPE=C3D3
3565, 5446, 5410, 5454
*ELEMENT, TYPE=C3D3
3566, 5481, 5446, 5492
*ELEMENT, TYPE=C3D3
3567, 4717, 4753, 4709
*ELEMENT, TYPE=C3D3
3568, 5366, 5401, 5354
*ELEMENT, TYPE=C3D3
3569, 5454, 5410, 5419
*ELEMENT, TYPE=C3D3
3570, 5492, 5446, 5454
*ELEMENT, TYPE=C3D3
3571, 4717, 4709, 4673
*ELEMENT, TYPE=C3D3
3572, 5419, 5410, 5374
*ELEMENT, TYPE=C3D3
3573, 5454, 5419, 5463
*ELEMENT, TYPE=C3D3
3574, 5492, 5454, 5500
*ELEMENT, TYPE=C3D3
3575, 4673, 4709, 4668
*ELEMENT, TYPE=C3D3
3576, 5374, 5410, 5366
*ELEMENT, TYPE=C3D3
3577, 5463, 5419, 5431
*ELEMENT, TYPE=C3D3
3578, 5500, 5454, 5463
*ELEMENT, TYPE=C3D3
3579, 4673, 4668, 4628
*ELEMENT, TYPE=C3D3
3580, 5431, 5419, 5384
*ELEMENT, TYPE=C3D3
3581, 5463, 5431, 5477
*ELEMENT, TYPE=C3D3
3582, 4628, 4668, 4626
*ELEMENT, TYPE=C3D3
3583, 4673, 4628, 4633
*ELEMENT, TYPE=C3D3
3584, 5384, 5419, 5374
*ELEMENT, TYPE=C3D3
3585, 5477, 5431, 5445
*ELEMENT, TYPE=C3D3
3586, 4628, 4626, 4586
*ELEMENT, TYPE=C3D3
3587, 4633, 4628, 4592
*ELEMENT, TYPE=C3D3
3588, 5445, 5431, 5397
*ELEMENT, TYPE=C3D3
3589, 5477, 5445, 5490
*ELEMENT, TYPE=C3D3
3590, 4586, 4626, 4582
*ELEMENT, TYPE=C3D3
3591, 4592, 4628, 4586
*ELEMENT, TYPE=C3D3
3592, 5397, 5431, 5384
*ELEMENT, TYPE=C3D3
3593, 5477, 5490, 5517
*ELEMENT, TYPE=C3D3
3594, 5526, 5546, 5520
*ELEMENT, TYPE=C3D3
3595, 5526, 5520, 5492
*ELEMENT, TYPE=C3D3
3596, 5492, 5520, 5481
*ELEMENT, TYPE=C3D3
3597, 5526, 5492, 5500
*ELEMENT, TYPE=C3D3
3598, 5481, 5520, 5511
*ELEMENT, TYPE=C3D3
3599, 5481, 5511, 5468
*ELEMENT, TYPE=C3D3
3600, 5468, 5511, 5504
*ELEMENT, TYPE=C3D3
3601, 5504, 5497, 5459
*ELEMENT, TYPE=C3D3
3602, 5459, 5497, 5452
*ELEMENT, TYPE=C3D3
3603, 5504, 5459, 5468
*ELEMENT, TYPE=C3D3
3604, 5452, 5497, 5489
*ELEMENT, TYPE=C3D3
3605, 1810, 1806, 1755
*ELEMENT, TYPE=C3D3
3606, 1810, 1755, 1763
*ELEMENT, TYPE=C3D3
3607, 1763, 1755, 1713
*ELEMENT, TYPE=C3D3
3608, 1713, 1755, 1705
*ELEMENT, TYPE=C3D3
3609, 1763, 1713, 1718
*ELEMENT, TYPE=C3D3
3610, 1705, 1755, 1753
*ELEMENT, TYPE=C3D3
3611, 1718, 1713, 1663
*ELEMENT, TYPE=C3D3
3612, 1763, 1718, 1771
*ELEMENT, TYPE=C3D3
3613, 1753, 1755, 1806
*ELEMENT, TYPE=C3D3
3614, 1663, 1713, 1658
*ELEMENT, TYPE=C3D3
3615, 1718, 1663, 1669
*ELEMENT, TYPE=C3D3
3616, 1771, 1718, 1724
*ELEMENT, TYPE=C3D3
3617, 1658, 1713, 1705
*ELEMENT, TYPE=C3D3
3618, 1669, 1663, 1616
*ELEMENT, TYPE=C3D3
3619, 1718, 1669, 1724
*ELEMENT, TYPE=C3D3
3620, 1658, 1705, 1653
*ELEMENT, TYPE=C3D3
3621, 1616, 1663, 1606
*ELEMENT, TYPE=C3D3
3622, 1724, 1669, 1679
*ELEMENT, TYPE=C3D3
3623, 1658, 1653, 1601
*ELEMENT, TYPE=C3D3
3624, 1616, 1606, 1558
*ELEMENT, TYPE=C3D3
3625, 1679, 1669, 1621
*ELEMENT, TYPE=C3D3
3626, 1601, 1653, 1599
*ELEMENT, TYPE=C3D3
3627, 1558, 1606, 1551
*ELEMENT, TYPE=C3D3
3628, 1621, 1669, 1616
*ELEMENT, TYPE=C3D3
3629, 1551, 1606, 1601
*ELEMENT, TYPE=C3D3
3630, 1558, 1551, 1501
*ELEMENT, TYPE=C3D3
3631, 1601, 1606, 1658
*ELEMENT, TYPE=C3D3
3632, 1551, 1601, 1544
*ELEMENT, TYPE=C3D3
3633, 1501, 1551, 1493
*ELEMENT, TYPE=C3D3
3634, 1658, 1606, 1663
*ELEMENT, TYPE=C3D3
3635, 1544, 1601, 1599
*ELEMENT, TYPE=C3D3
3636, 1493, 1551, 1544
*ELEMENT, TYPE=C3D3
3637, 1501, 1493, 1432
*ELEMENT, TYPE=C3D3
3638, 1493, 1544, 1485
*ELEMENT, TYPE=C3D3
3639, 1432, 1493, 1427
*ELEMENT, TYPE=C3D3
3640, 1493, 1485, 1427
*ELEMENT, TYPE=C3D3
3641, 1432, 1427, 1370
*ELEMENT, TYPE=C3D3
3642, 1427, 1485, 1423
*ELEMENT, TYPE=C3D3
3643, 1370, 1427, 1363
*ELEMENT, TYPE=C3D3
3644, 1432, 1370, 1377
*ELEMENT, TYPE=C3D3
3645, 1427, 1423, 1363
*ELEMENT, TYPE=C3D3
3646, 1377, 1370, 1312
*ELEMENT, TYPE=C3D3
3647, 1312, 1370, 1306
*ELEMENT, TYPE=C3D3
3648, 1377, 1312, 1324
*ELEMENT, TYPE=C3D3
3649, 1306, 1370, 1363
*ELEMENT, TYPE=C3D3
3650, 1312, 1306, 1253
*ELEMENT, TYPE=C3D3
3651, 1324, 1312, 1260
*ELEMENT, TYPE=C3D3
3652, 1306, 1363, 1301
*ELEMENT, TYPE=C3D3
3653, 1253, 1306, 1243
*ELEMENT, TYPE=C3D3
3654, 1260, 1312, 1253
*ELEMENT, TYPE=C3D3
3655, 1324, 1260, 1265
*ELEMENT, TYPE=C3D3
3656, 1306, 1301, 1243
*ELEMENT, TYPE=C3D3
3657, 1265, 1260, 1203
*ELEMENT, TYPE=C3D3
3658, 1324, 1265, 1330
*ELEMENT, TYPE=C3D3
3659, 1203, 1260, 1200
*ELEMENT, TYPE=C3D3
3660, 1265, 1203, 1215
*ELEMENT, TYPE=C3D3
3661, 1330, 1265, 1280
*ELEMENT, TYPE=C3D3
3662, 1200, 1260, 1253
*ELEMENT, TYPE=C3D3
3663, 1203, 1200, 1147
*ELEMENT, TYPE=C3D3
3664, 1215, 1203, 1155
*ELEMENT, TYPE=C3D3
3665, 1280, 1265, 1215
*ELEMENT, TYPE=C3D3
3666, 1147, 1200, 1138
*ELEMENT, TYPE=C3D3
3667, 1203, 1147, 1155
*ELEMENT, TYPE=C3D3
3668, 1280, 1215, 1229
*ELEMENT, TYPE=C3D3
3669, 1138, 1200, 1193
*ELEMENT, TYPE=C3D3
3670, 1155, 1147, 1094
*ELEMENT, TYPE=C3D3
3671, 1229, 1215, 1166
*ELEMENT, TYPE=C3D3
3672, 1280, 1229, 1294
*ELEMENT, TYPE=C3D3
3673, 1193, 1200, 1253
*ELEMENT, TYPE=C3D3
3674, 1094, 1147, 1088
*ELEMENT, TYPE=C3D3
3675, 1166, 1215, 1155
*ELEMENT, TYPE=C3D3
3676, 1294, 1229, 1244
*ELEMENT, TYPE=C3D3
3677, 1088, 1147, 1138
*ELEMENT, TYPE=C3D3
3678, 1094, 1088, 1035
*ELEMENT, TYPE=C3D3
3679, 1166, 1155, 1103
*ELEMENT, TYPE=C3D3
3680, 1244, 1229, 1182
*ELEMENT, TYPE=C3D3
3681, 1088, 1138, 1079
*ELEMENT, TYPE=C3D3
3682, 1035, 1088, 1033
*ELEMENT, TYPE=C3D3
3683, 1103, 1155, 1094
*ELEMENT, TYPE=C3D3
3684, 1182, 1229, 1166
*ELEMENT, TYPE=C3D3
3685, 1079, 1138, 1134
*ELEMENT, TYPE=C3D3
3686, 1033, 1088, 1079
*ELEMENT, TYPE=C3D3
3687, 1103, 1094, 1045
*ELEMENT, TYPE=C3D3
3688, 1182, 1166, 1122
*ELEMENT, TYPE=C3D3
3689, 1134, 1138, 1193
*ELEMENT, TYPE=C3D3
3690, 1033, 1079, 1026
*ELEMENT, TYPE=C3D3
3691, 1045, 1094, 1035
*ELEMENT, TYPE=C3D3
3692, 1122, 1166, 1103
*ELEMENT, TYPE=C3D3
3693, 1026, 1079, 1074
*ELEMENT, TYPE=C3D3
3694, 1033, 1026, 976
*ELEMENT, TYPE=C3D3
3695, 1045, 1035, 988
*ELEMENT, TYPE=C3D3
3696, 1122, 1103, 1060
*ELEMENT, TYPE=C3D3
3697, 1074, 1079, 1134
*ELEMENT, TYPE=C3D3
3698, 976, 1026, 970
*ELEMENT, TYPE=C3D3
3699, 988, 1035, 980
*ELEMENT, TYPE=C3D3
3700, 1060, 1103, 1045
*ELEMENT, TYPE=C3D3
3701, 976, 970, 920
*ELEMENT, TYPE=C3D3
3702, 980, 1035, 1033
*ELEMENT, TYPE=C3D3
3703, 976, 920, 928
*ELEMENT, TYPE=C3D3
3704, 980, 1033, 976
*ELEMENT, TYPE=C3D3
3705, 928, 920, 876
*ELEMENT, TYPE=C3D3
3706, 976, 928, 980
*ELEMENT, TYPE=C3D3
3707, 876, 920, 868
*ELEMENT, TYPE=C3D3
3708, 980, 928, 936
*ELEMENT, TYPE=C3D3
3709, 876, 868, 828
*ELEMENT, TYPE=C3D3
3710, 936, 928, 883
*ELEMENT, TYPE=C3D3
3711, 980, 936, 988
*ELEMENT, TYPE=C3D3
3712, 876, 828, 831
*ELEMENT, TYPE=C3D3
3713, 883, 928, 876
*ELEMENT, TYPE=C3D3
3714, 988, 936, 943
*ELEMENT, TYPE=C3D3
3715, 831, 828, 783
*ELEMENT, TYPE=C3D3
3716, 943, 936, 891
*ELEMENT, TYPE=C3D3
3717, 988, 943, 1000
*ELEMENT, TYPE=C3D3
3718, 783, 828, 776
*ELEMENT, TYPE=C3D3
3719, 891, 936, 883
*ELEMENT, TYPE=C3D3
3720, 1000, 943, 956
*ELEMENT, TYPE=C3D3
3721, 988, 1000, 1045
*ELEMENT, TYPE=C3D3
3722, 783, 776, 735
*ELEMENT, TYPE=C3D3
3723, 891, 883, 838
*ELEMENT, TYPE=C3D3
3724, 956, 943, 901
*ELEMENT, TYPE=C3D3
3725, 1045, 1000, 1060
*ELEMENT, TYPE=C3D3
3726, 838, 883, 831
*ELEMENT, TYPE=C3D3
3727, 891, 838, 845
*ELEMENT, TYPE=C3D3
3728, 901, 943, 891
*ELEMENT, TYPE=C3D3
3729, 1060, 1000, 1013
*ELEMENT, TYPE=C3D3
3730, 831, 883, 876
*ELEMENT, TYPE=C3D3
3731, 845, 838, 795
*ELEMENT, TYPE=C3D3
3732, 1013, 1000, 956
*ELEMENT, TYPE=C3D3
3733, 1060, 1013, 1073
*ELEMENT, TYPE=C3D3
3734, 795, 838, 786
*ELEMENT, TYPE=C3D3
3735, 1013, 956, 973
*ELEMENT, TYPE=C3D3
3736, 1073, 1013, 1031
*ELEMENT, TYPE=C3D3
3737, 786, 838, 831
*ELEMENT, TYPE=C3D3
3738, 973, 956, 916
*ELEMENT, TYPE=C3D3
3739, 1013, 973, 1031
*ELEMENT, TYPE=C3D3
3740, 916, 956, 901
*ELEMENT, TYPE=C3D3
3741, 973, 916, 931
*ELEMENT, TYPE=C3D3
3742, 1031, 973, 985
*ELEMENT, TYPE=C3D3
3743, 916, 901, 861
*ELEMENT, TYPE=C3D3
3744, 931, 916, 875
*ELEMENT, TYPE=C3D3
3745, 973, 931, 985
*ELEMENT, TYPE=C3D3
3746, 861, 901, 845
*ELEMENT, TYPE=C3D3
3747, 875, 916, 861
*ELEMENT, TYPE=C3D3
3748, 985, 931, 944
*ELEMENT, TYPE=C3D3
3749, 845, 901, 891
*ELEMENT, TYPE=C3D3
3750, 861, 845, 806
*ELEMENT, TYPE=C3D3
3751, 875, 861, 824
*ELEMENT, TYPE=C3D3
3752, 944, 931, 889
*ELEMENT, TYPE=C3D3
3753, 806, 845, 795
*ELEMENT, TYPE=C3D3
3754, 861, 806, 824
*ELEMENT, TYPE=C3D3
3755, 889, 931, 875
*ELEMENT, TYPE=C3D3
3756, 824, 806, 770
*ELEMENT, TYPE=C3D3
3757, 889, 875, 837
*ELEMENT, TYPE=C3D3
3758, 770, 806, 753
*ELEMENT, TYPE=C3D3
3759, 824, 770, 785
*ELEMENT, TYPE=C3D3
3760, 837, 875, 824
*ELEMENT, TYPE=C3D3
3761, 889, 837, 851
*ELEMENT, TYPE=C3D3
3762, 753, 806, 795
*ELEMENT, TYPE=C3D3
3763, 785, 770, 734
*ELEMENT, TYPE=C3D3
3764, 837, 824, 785
*ELEMENT, TYPE=C3D3
3765, 851, 837, 797
*ELEMENT, TYPE=C3D3
3766, 753, 795, 747
*ELEMENT, TYPE=C3D3
3767, 734, 770, 722
*ELEMENT, TYPE=C3D3
3768, 837, 785, 797
*ELEMENT, TYPE=C3D3
3769, 747, 795, 786
*ELEMENT, TYPE=C3D3
3770, 722, 770, 753
*ELEMENT, TYPE=C3D3
3771, 797, 785, 746
*ELEMENT, TYPE=C3D3
3772, 747, 786, 739
*ELEMENT, TYPE=C3D3
3773, 746, 785, 734
*ELEMENT, TYPE=C3D3
3774, 797, 746, 762
*ELEMENT, TYPE=C3D3
3775, 739, 786, 783
*ELEMENT, TYPE=C3D3
3776, 746, 734, 697
*ELEMENT, TYPE=C3D3
3777, 762, 746, 708
*ELEMENT, TYPE=C3D3
3778, 797, 762, 814
*ELEMENT, TYPE=C3D3
3779, 783, 786, 831
*ELEMENT, TYPE=C3D3
3780, 697, 734, 684
*ELEMENT, TYPE=C3D3
3781, 708, 746, 697
*ELEMENT, TYPE=C3D3
3782, 814, 762, 784
*ELEMENT, TYPE=C3D3
3783, 697, 684, 650
*ELEMENT, TYPE=C3D3
3784, 708, 697, 661
*ELEMENT, TYPE=C3D3
3785, 784, 762, 731
*ELEMENT, TYPE=C3D3
3786, 650, 684, 635
*ELEMENT, TYPE=C3D3
3787, 697, 650, 661
*ELEMENT, TYPE=C3D3
3788, 731, 762, 708
*ELEMENT, TYPE=C3D3
3789, 635, 684, 672
*ELEMENT, TYPE=C3D3
3790, 661, 650, 615
*ELEMENT, TYPE=C3D3
3791, 731, 708, 681
*ELEMENT, TYPE=C3D3
3792, 672, 684, 722
*ELEMENT, TYPE=C3D3
3793, 635, 672, 623
*ELEMENT, TYPE=C3D3
3794, 615, 650, 605
*ELEMENT, TYPE=C3D3
3795, 681, 708, 661
*ELEMENT, TYPE=C3D3
3796, 722, 684, 734
*ELEMENT, TYPE=C3D3
3797, 623, 672, 659
*ELEMENT, TYPE=C3D3
3798, 605, 650, 635
*ELEMENT, TYPE=C3D3
3799, 681, 661, 631
*ELEMENT, TYPE=C3D3
3800, 659, 672, 704
*ELEMENT, TYPE=C3D3
3801, 605, 635, 591
*ELEMENT, TYPE=C3D3
3802, 631, 661, 615
*ELEMENT, TYPE=C3D3
3803, 681, 631, 652
*ELEMENT, TYPE=C3D3
3804, 704, 672, 722
*ELEMENT, TYPE=C3D3
3805, 591, 635, 623
*ELEMENT, TYPE=C3D3
3806, 631, 615, 583
*ELEMENT, TYPE=C3D3
3807, 652, 631, 603
*ELEMENT, TYPE=C3D3
3808, 591, 623, 579
*ELEMENT, TYPE=C3D3
3809, 583, 615, 572
*ELEMENT, TYPE=C3D3
3810, 631, 583, 603
*ELEMENT, TYPE=C3D3
3811, 579, 623, 614
*ELEMENT, TYPE=C3D3
3812, 572, 615, 605
*ELEMENT, TYPE=C3D3
3813, 603, 583, 557
*ELEMENT, TYPE=C3D3
3814, 614, 623, 659
*ELEMENT, TYPE=C3D3
3815, 579, 614, 574
*ELEMENT, TYPE=C3D3
3816, 557, 583, 539
*ELEMENT, TYPE=C3D3
3817, 603, 557, 575
*ELEMENT, TYPE=C3D3
3818, 574, 614, 608
*ELEMENT, TYPE=C3D3
3819, 579, 574, 537
*ELEMENT, TYPE=C3D3
3820, 539, 583, 572
*ELEMENT, TYPE=C3D3
3821, 575, 557, 531
*ELEMENT, TYPE=C3D3
3822, 608, 614, 653
*ELEMENT, TYPE=C3D3
3823, 579, 537, 544
*ELEMENT, TYPE=C3D3
3824, 539, 572, 530
*ELEMENT, TYPE=C3D3
3825, 531, 557, 514
*ELEMENT, TYPE=C3D3
3826, 653, 614, 659
*ELEMENT, TYPE=C3D3
3827, 579, 544, 591
*ELEMENT, TYPE=C3D3
3828, 530, 572, 559
*ELEMENT, TYPE=C3D3
3829, 514, 557, 539
*ELEMENT, TYPE=C3D3
3830, 591, 544, 559
*ELEMENT, TYPE=C3D3
3831, 559, 572, 605
*ELEMENT, TYPE=C3D3
3832, 514, 539, 497
*ELEMENT, TYPE=C3D3
3833, 559, 544, 516
*ELEMENT, TYPE=C3D3
3834, 559, 605, 591
*ELEMENT, TYPE=C3D3
3835, 497, 539, 530
*ELEMENT, TYPE=C3D3
3836, 559, 516, 530
*ELEMENT, TYPE=C3D3
3837, 497, 530, 487
*ELEMENT, TYPE=C3D3
3838, 530, 516, 487
*ELEMENT, TYPE=C3D3
3839, 1653, 1705, 1699
*ELEMENT, TYPE=C3D3
3840, 1699, 1705, 1753
*ELEMENT, TYPE=C3D3
3841, 1699, 1753, 1749
*ELEMENT, TYPE=C3D3
3842, 1699, 1749, 1695
*ELEMENT, TYPE=C3D3
3843, 1501, 1432, 1440
*ELEMENT, TYPE=C3D3
3844, 1440, 1432, 1377
*ELEMENT, TYPE=C3D3
3845, 1501, 1440, 1506
*ELEMENT, TYPE=C3D3
3846, 1440, 1377, 1386
*ELEMENT, TYPE=C3D3
3847, 1506, 1440, 1446
*ELEMENT, TYPE=C3D3
3848, 1501, 1506, 1558
*ELEMENT, TYPE=C3D3
3849, 1386, 1377, 1324
*ELEMENT, TYPE=C3D3
3850, 1446, 1440, 1386
*ELEMENT, TYPE=C3D3
3851, 1506, 1446, 1511
*ELEMENT, TYPE=C3D3
3852, 1558, 1506, 1563
*ELEMENT, TYPE=C3D3
3853, 1446, 1386, 1397
*ELEMENT, TYPE=C3D3
3854, 1511, 1446, 1467
*ELEMENT, TYPE=C3D3
3855, 1563, 1506, 1511
*ELEMENT, TYPE=C3D3
3856, 1397, 1386, 1330
*ELEMENT, TYPE=C3D3
3857, 1446, 1397, 1467
*ELEMENT, TYPE=C3D3
3858, 1330, 1386, 1324
*ELEMENT, TYPE=C3D3
3859, 1397, 1330, 1346
*ELEMENT, TYPE=C3D3
3860, 1467, 1397, 1411
*ELEMENT, TYPE=C3D3
3861, 1346, 1330, 1280
*ELEMENT, TYPE=C3D3
3862, 1397, 1346, 1411
*ELEMENT, TYPE=C3D3
3863, 1346, 1280, 1294
*ELEMENT, TYPE=C3D3
3864, 1411, 1346, 1362
*ELEMENT, TYPE=C3D3
3865, 1346, 1294, 1362
*ELEMENT, TYPE=C3D3
3866, 1411, 1362, 1428
*ELEMENT, TYPE=C3D3
3867, 1362, 1294, 1309
*ELEMENT, TYPE=C3D3
3868, 1428, 1362, 1375
*ELEMENT, TYPE=C3D3
3869, 1411, 1428, 1480
*ELEMENT, TYPE=C3D3
3870, 1309, 1294, 1244
*ELEMENT, TYPE=C3D3
3871, 1375, 1362, 1309
*ELEMENT, TYPE=C3D3
3872, 1480, 1428, 1495
*ELEMENT, TYPE=C3D3
3873, 1411, 1480, 1467
*ELEMENT, TYPE=C3D3
3874, 1375, 1309, 1327
*ELEMENT, TYPE=C3D3
3875, 1495, 1428, 1442
*ELEMENT, TYPE=C3D3
3876, 1467, 1480, 1531
*ELEMENT, TYPE=C3D3
3877, 1327, 1309, 1264
*ELEMENT, TYPE=C3D3
3878, 1442, 1428, 1375
*ELEMENT, TYPE=C3D3
3879, 1495, 1442, 1509
*ELEMENT, TYPE=C3D3
3880, 1531, 1480, 1542
*ELEMENT, TYPE=C3D3
3881, 1264, 1309, 1244
*ELEMENT, TYPE=C3D3
3882, 1509, 1442, 1463
*ELEMENT, TYPE=C3D3
3883, 1495, 1509, 1556
*ELEMENT, TYPE=C3D3
3884, 1542, 1480, 1495
*ELEMENT, TYPE=C3D3
3885, 1264, 1244, 1198
*ELEMENT, TYPE=C3D3
3886, 1463, 1442, 1393
*ELEMENT, TYPE=C3D3
3887, 1556, 1509, 1570
*ELEMENT, TYPE=C3D3
3888, 1198, 1244, 1182
*ELEMENT, TYPE=C3D3
3889, 1264, 1198, 1212
*ELEMENT, TYPE=C3D3
3890, 1393, 1442, 1375
*ELEMENT, TYPE=C3D3
3891, 1570, 1509, 1530
*ELEMENT, TYPE=C3D3
3892, 1212, 1198, 1151
*ELEMENT, TYPE=C3D3
3893, 1264, 1212, 1278
*ELEMENT, TYPE=C3D3
3894, 1530, 1509, 1463
*ELEMENT, TYPE=C3D3
3895, 1570, 1530, 1594
*ELEMENT, TYPE=C3D3
3896, 1151, 1198, 1135
*ELEMENT, TYPE=C3D3
3897, 1278, 1212, 1232
*ELEMENT, TYPE=C3D3
3898, 1594, 1530, 1547
*ELEMENT, TYPE=C3D3
3899, 1570, 1594, 1632
*ELEMENT, TYPE=C3D3
3900, 1135, 1198, 1182
*ELEMENT, TYPE=C3D3
3901, 1232, 1212, 1168
*ELEMENT, TYPE=C3D3
3902, 1547, 1530, 1482
*ELEMENT, TYPE=C3D3
3903, 1632, 1594, 1652
*ELEMENT, TYPE=C3D3
3904, 1168, 1212, 1151
*ELEMENT, TYPE=C3D3
3905, 1232, 1168, 1191
*ELEMENT, TYPE=C3D3
3906, 1482, 1530, 1463
*ELEMENT, TYPE=C3D3
3907, 1652, 1594, 1607
*ELEMENT, TYPE=C3D3
3908, 1191, 1168, 1126
*ELEMENT, TYPE=C3D3
3909, 1232, 1191, 1256
*ELEMENT, TYPE=C3D3
3910, 1607, 1594, 1547
*ELEMENT, TYPE=C3D3
3911, 1652, 1607, 1666
*ELEMENT, TYPE=C3D3
3912, 1126, 1168, 1102
*ELEMENT, TYPE=C3D3
3913, 1256, 1191, 1210
*ELEMENT, TYPE=C3D3
3914, 1666, 1607, 1625
*ELEMENT, TYPE=C3D3
3915, 1652, 1666, 1711
*ELEMENT, TYPE=C3D3
3916, 1102, 1168, 1151
*ELEMENT, TYPE=C3D3
3917, 1210, 1191, 1148
*ELEMENT, TYPE=C3D3
3918, 1625, 1607, 1564
*ELEMENT, TYPE=C3D3
3919, 1711, 1666, 1723
*ELEMENT, TYPE=C3D3
3920, 1148, 1191, 1126
*ELEMENT, TYPE=C3D3
3921, 1210, 1148, 1169
*ELEMENT, TYPE=C3D3
3922, 1564, 1607, 1547
*ELEMENT, TYPE=C3D3
3923, 1723, 1666, 1685
*ELEMENT, TYPE=C3D3
3924, 1169, 1148, 1101
*ELEMENT, TYPE=C3D3
3925, 1210, 1169, 1234
*ELEMENT, TYPE=C3D3
3926, 1685, 1666, 1625
*ELEMENT, TYPE=C3D3
3927, 1723, 1685, 1743
*ELEMENT, TYPE=C3D3
3928, 1101, 1148, 1084
*ELEMENT, TYPE=C3D3
3929, 1234, 1169, 1195
*ELEMENT, TYPE=C3D3
3930, 1743, 1685, 1708
*ELEMENT, TYPE=C3D3
3931, 1723, 1743, 1781
*ELEMENT, TYPE=C3D3
3932, 1084, 1148, 1126
*ELEMENT, TYPE=C3D3
3933, 1195, 1169, 1132
*ELEMENT, TYPE=C3D3
3934, 1708, 1685, 1651
*ELEMENT, TYPE=C3D3
3935, 1781, 1743, 1801
*ELEMENT, TYPE=C3D3
3936, 1132, 1169, 1101
*ELEMENT, TYPE=C3D3
3937, 1195, 1132, 1153
*ELEMENT, TYPE=C3D3
3938, 1651, 1685, 1625
*ELEMENT, TYPE=C3D3
3939, 1801, 1743, 1765
*ELEMENT, TYPE=C3D3
3940, 1153, 1132, 1092
*ELEMENT, TYPE=C3D3
3941, 1195, 1153, 1216
*ELEMENT, TYPE=C3D3
3942, 1765, 1743, 1708
*ELEMENT, TYPE=C3D3
3943, 1801, 1765, 1821
*ELEMENT, TYPE=C3D3
3944, 1092, 1132, 1068
*ELEMENT, TYPE=C3D3
3945, 1216, 1153, 1183
*ELEMENT, TYPE=C3D3
3946, 1821, 1765, 1783
*ELEMENT, TYPE=C3D3
3947, 1801, 1821, 1857
*ELEMENT, TYPE=C3D3
3948, 1068, 1132, 1101
*ELEMENT, TYPE=C3D3
3949, 1183, 1153, 1117
*ELEMENT, TYPE=C3D3
3950, 1783, 1765, 1726
*ELEMENT, TYPE=C3D3
3951, 1857, 1821, 1874
*ELEMENT, TYPE=C3D3
3952, 1117, 1153, 1092
*ELEMENT, TYPE=C3D3
3953, 1183, 1117, 1145
*ELEMENT, TYPE=C3D3
3954, 1726, 1765, 1708
*ELEMENT, TYPE=C3D3
3955, 1874, 1821, 1840
*ELEMENT, TYPE=C3D3
3956, 1145, 1117, 1083
*ELEMENT, TYPE=C3D3
3957, 1183, 1145, 1211
*ELEMENT, TYPE=C3D3
3958, 1840, 1821, 1783
*ELEMENT, TYPE=C3D3
3959, 1874, 1840, 1896
*ELEMENT, TYPE=C3D3
3960, 1083, 1117, 1055
*ELEMENT, TYPE=C3D3
3961, 1211, 1145, 1175
*ELEMENT, TYPE=C3D3
3962, 1896, 1840, 1864
*ELEMENT, TYPE=C3D3
3963, 1874, 1896, 1930
*ELEMENT, TYPE=C3D3
3964, 1055, 1117, 1092
*ELEMENT, TYPE=C3D3
3965, 1175, 1145, 1110
*ELEMENT, TYPE=C3D3
3966, 1864, 1840, 1809
*ELEMENT, TYPE=C3D3
3967, 1930, 1896, 1952
*ELEMENT, TYPE=C3D3
3968, 1110, 1145, 1083
*ELEMENT, TYPE=C3D3
3969, 1175, 1110, 1140
*ELEMENT, TYPE=C3D3
3970, 1809, 1840, 1783
*ELEMENT, TYPE=C3D3
3971, 1952, 1896, 1918
*ELEMENT, TYPE=C3D3
3972, 1140, 1110, 1078
*ELEMENT, TYPE=C3D3
3973, 1175, 1140, 1205
*ELEMENT, TYPE=C3D3
3974, 1918, 1896, 1864
*ELEMENT, TYPE=C3D3
3975, 1952, 1918, 1972
*ELEMENT, TYPE=C3D3
3976, 1078, 1110, 1046
*ELEMENT, TYPE=C3D3
3977, 1205, 1140, 1174
*ELEMENT, TYPE=C3D3
3978, 1972, 1918, 1938
*ELEMENT, TYPE=C3D3
3979, 1952, 1972, 2004
*ELEMENT, TYPE=C3D3
3980, 1046, 1110, 1083
*ELEMENT, TYPE=C3D3
3981, 1174, 1140, 1108
*ELEMENT, TYPE=C3D3
3982, 1938, 1918, 1882
*ELEMENT, TYPE=C3D3
3983, 2004, 1972, 2026
*ELEMENT, TYPE=C3D3
3984, 1108, 1140, 1078
*ELEMENT, TYPE=C3D3
3985, 1174, 1108, 1142
*ELEMENT, TYPE=C3D3
3986, 1882, 1918, 1864
*ELEMENT, TYPE=C3D3
3987, 2026, 1972, 1994
*ELEMENT, TYPE=C3D3
3988, 1142, 1108, 1080
*ELEMENT, TYPE=C3D3
3989, 1174, 1142, 1208
*ELEMENT, TYPE=C3D3
3990, 1994, 1972, 1938
*ELEMENT, TYPE=C3D3
3991, 2026, 1994, 2048
*ELEMENT, TYPE=C3D3
3992, 1080, 1108, 1044
*ELEMENT, TYPE=C3D3
3993, 1208, 1142, 1180
*ELEMENT, TYPE=C3D3
3994, 2048, 1994, 2018
*ELEMENT, TYPE=C3D3
3995, 2026, 2048, 2078
*ELEMENT, TYPE=C3D3
3996, 1044, 1108, 1078
*ELEMENT, TYPE=C3D3
3997, 1180, 1142, 1116
*ELEMENT, TYPE=C3D3
3998, 2018, 1994, 1965
*ELEMENT, TYPE=C3D3
3999, 2078, 2048, 2103
*ELEMENT, TYPE=C3D3
4000, 1116, 1142, 1080
*ELEMENT, TYPE=C3D3
4001, 1180, 1116, 1152
*ELEMENT, TYPE=C3D3
4002, 1965, 1994, 1938
*ELEMENT, TYPE=C3D3
4003, 2103, 2048, 2070
*ELEMENT, TYPE=C3D3
4004, 1152, 1116, 1090
*ELEMENT, TYPE=C3D3
4005, 1180, 1152, 1214
*ELEMENT, TYPE=C3D3
4006, 2070, 2048, 2018
*ELEMENT, TYPE=C3D3
4007, 2103, 2070, 2125
*ELEMENT, TYPE=C3D3
4008, 1090, 1116, 1050
*ELEMENT, TYPE=C3D3
4009, 1214, 1152, 1192
*ELEMENT, TYPE=C3D3
4010, 2125, 2070, 2097
*ELEMENT, TYPE=C3D3
4011, 2103, 2125, 2156
*ELEMENT, TYPE=C3D3
4012, 1050, 1116, 1080
*ELEMENT, TYPE=C3D3
4013, 1192, 1152, 1125
*ELEMENT, TYPE=C3D3
4014, 2097, 2070, 2044
*ELEMENT, TYPE=C3D3
4015, 2156, 2125, 2180
*ELEMENT, TYPE=C3D3
4016, 1125, 1152, 1090
*ELEMENT, TYPE=C3D3
4017, 1192, 1125, 1161
*ELEMENT, TYPE=C3D3
4018, 2044, 2070, 2018
*ELEMENT, TYPE=C3D3
4019, 2180, 2125, 2151
*ELEMENT, TYPE=C3D3
4020, 1161, 1125, 1098
*ELEMENT, TYPE=C3D3
4021, 1192, 1161, 1228
*ELEMENT, TYPE=C3D3
4022, 2151, 2125, 2097
*ELEMENT, TYPE=C3D3
4023, 2180, 2151, 2201
*ELEMENT, TYPE=C3D3
4024, 1098, 1125, 1064
*ELEMENT, TYPE=C3D3
4025, 1228, 1161, 1201
*ELEMENT, TYPE=C3D3
4026, 2201, 2151, 2169
*ELEMENT, TYPE=C3D3
4027, 2180, 2201, 2231
*ELEMENT, TYPE=C3D3
4028, 1064, 1125, 1090
*ELEMENT, TYPE=C3D3
4029, 1201, 1161, 1139
*ELEMENT, TYPE=C3D3
4030, 2169, 2151, 2118
*ELEMENT, TYPE=C3D3
4031, 2231, 2201, 2253
*ELEMENT, TYPE=C3D3
4032, 1139, 1161, 1098
*ELEMENT, TYPE=C3D3
4033, 1201, 1139, 1184
*ELEMENT, TYPE=C3D3
4034, 2118, 2151, 2097
*ELEMENT, TYPE=C3D3
4035, 2253, 2201, 2225
*ELEMENT, TYPE=C3D3
4036, 1184, 1139, 1119
*ELEMENT, TYPE=C3D3
4037, 1201, 1184, 1249
*ELEMENT, TYPE=C3D3
4038, 2225, 2201, 2169
*ELEMENT, TYPE=C3D3
4039, 2253, 2225, 2278
*ELEMENT, TYPE=C3D3
4040, 1119, 1139, 1077
*ELEMENT, TYPE=C3D3
4041, 1249, 1184, 1225
*ELEMENT, TYPE=C3D3
4042, 2278, 2225, 2249
*ELEMENT, TYPE=C3D3
4043, 2253, 2278, 2302
*ELEMENT, TYPE=C3D3
4044, 1077, 1139, 1098
*ELEMENT, TYPE=C3D3
4045, 1225, 1184, 1158
*ELEMENT, TYPE=C3D3
4046, 2249, 2225, 2198
*ELEMENT, TYPE=C3D3
4047, 2302, 2278, 2331
*ELEMENT, TYPE=C3D3
4048, 1158, 1184, 1119
*ELEMENT, TYPE=C3D3
4049, 1225, 1158, 1202
*ELEMENT, TYPE=C3D3
4050, 2198, 2225, 2169
*ELEMENT, TYPE=C3D3
4051, 2331, 2278, 2300
*ELEMENT, TYPE=C3D3
4052, 1202, 1158, 1141
*ELEMENT, TYPE=C3D3
4053, 1225, 1202, 1268
*ELEMENT, TYPE=C3D3
4054, 2300, 2278, 2249
*ELEMENT, TYPE=C3D3
4055, 2331, 2300, 2352
*ELEMENT, TYPE=C3D3
4056, 1141, 1158, 1097
*ELEMENT, TYPE=C3D3
4057, 1268, 1202, 1255
*ELEMENT, TYPE=C3D3
4058, 2352, 2300, 2326
*ELEMENT, TYPE=C3D3
4059, 2331, 2352, 2382
*ELEMENT, TYPE=C3D3
4060, 1097, 1158, 1119
*ELEMENT, TYPE=C3D3
4061, 1255, 1202, 1190
*ELEMENT, TYPE=C3D3
4062, 2326, 2300, 2274
*ELEMENT, TYPE=C3D3
4063, 2382, 2352, 2405
*ELEMENT, TYPE=C3D3
4064, 1190, 1202, 1141
*ELEMENT, TYPE=C3D3
4065, 1255, 1190, 1235
*ELEMENT, TYPE=C3D3
4066, 2274, 2300, 2249
*ELEMENT, TYPE=C3D3
4067, 2405, 2352, 2377
*ELEMENT, TYPE=C3D3
4068, 1235, 1190, 1172
*ELEMENT, TYPE=C3D3
4069, 1255, 1235, 1302
*ELEMENT, TYPE=C3D3
4070, 2377, 2352, 2326
*ELEMENT, TYPE=C3D3
4071, 2405, 2377, 2430
*ELEMENT, TYPE=C3D3
4072, 1172, 1190, 1128
*ELEMENT, TYPE=C3D3
4073, 1302, 1235, 1285
*ELEMENT, TYPE=C3D3
4074, 2430, 2377, 2404
*ELEMENT, TYPE=C3D3
4075, 2405, 2430, 2454
*ELEMENT, TYPE=C3D3
4076, 1128, 1190, 1141
*ELEMENT, TYPE=C3D3
4077, 1285, 1235, 1217
*ELEMENT, TYPE=C3D3
4078, 2404, 2377, 2351
*ELEMENT, TYPE=C3D3
4079, 2454, 2430, 2477
*ELEMENT, TYPE=C3D3
4080, 1217, 1235, 1172
*ELEMENT, TYPE=C3D3
4081, 1285, 1217, 1266
*ELEMENT, TYPE=C3D3
4082, 2351, 2377, 2326
*ELEMENT, TYPE=C3D3
4083, 2477, 2430, 2455
*ELEMENT, TYPE=C3D3
4084, 1266, 1217, 1204
*ELEMENT, TYPE=C3D3
4085, 1285, 1266, 1331
*ELEMENT, TYPE=C3D3
4086, 2455, 2430, 2404
*ELEMENT, TYPE=C3D3
4087, 2477, 2455, 2504
*ELEMENT, TYPE=C3D3
4088, 1204, 1217, 1156
*ELEMENT, TYPE=C3D3
4089, 1331, 1266, 1323
*ELEMENT, TYPE=C3D3
4090, 2504, 2455, 2480
*ELEMENT, TYPE=C3D3
4091, 2477, 2504, 2536
*ELEMENT, TYPE=C3D3
4092, 1156, 1217, 1172
*ELEMENT, TYPE=C3D3
4093, 1323, 1266, 1259
*ELEMENT, TYPE=C3D3
4094, 2480, 2455, 2431
*ELEMENT, TYPE=C3D3
4095, 2536, 2504, 2552
*ELEMENT, TYPE=C3D3
4096, 1259, 1266, 1204
*ELEMENT, TYPE=C3D3
4097, 1323, 1259, 1310
*ELEMENT, TYPE=C3D3
4098, 2431, 2455, 2404
*ELEMENT, TYPE=C3D3
4099, 2552, 2504, 2531
*ELEMENT, TYPE=C3D3
4100, 1310, 1259, 1248
*ELEMENT, TYPE=C3D3
4101, 1323, 1310, 1373
*ELEMENT, TYPE=C3D3
4102, 2531, 2504, 2480
*ELEMENT, TYPE=C3D3
4103, 2552, 2531, 2583
*ELEMENT, TYPE=C3D3
4104, 1248, 1259, 1197
*ELEMENT, TYPE=C3D3
4105, 1373, 1310, 1365
*ELEMENT, TYPE=C3D3
4106, 2583, 2531, 2554
*ELEMENT, TYPE=C3D3
4107, 2552, 2583, 2604
*ELEMENT, TYPE=C3D3
4108, 1197, 1259, 1204
*ELEMENT, TYPE=C3D3
4109, 1365, 1310, 1299
*ELEMENT, TYPE=C3D3
4110, 2554, 2531, 2505
*ELEMENT, TYPE=C3D3
4111, 2604, 2583, 2632
*ELEMENT, TYPE=C3D3
4112, 1299, 1310, 1248
*ELEMENT, TYPE=C3D3
4113, 1365, 1299, 1357
*ELEMENT, TYPE=C3D3
4114, 2505, 2531, 2480
*ELEMENT, TYPE=C3D3
4115, 2632, 2583, 2605
*ELEMENT, TYPE=C3D3
4116, 1357, 1299, 1292
*ELEMENT, TYPE=C3D3
4117, 1365, 1357, 1421
*ELEMENT, TYPE=C3D3
4118, 2605, 2583, 2554
*ELEMENT, TYPE=C3D3
4119, 2632, 2605, 2657
*ELEMENT, TYPE=C3D3
4120, 1292, 1299, 1237
*ELEMENT, TYPE=C3D3
4121, 1421, 1357, 1409
*ELEMENT, TYPE=C3D3
4122, 2657, 2605, 2635
*ELEMENT, TYPE=C3D3
4123, 2632, 2657, 2680
*ELEMENT, TYPE=C3D3
4124, 1237, 1299, 1248
*ELEMENT, TYPE=C3D3
4125, 1409, 1357, 1349
*ELEMENT, TYPE=C3D3
4126, 2635, 2605, 2586
*ELEMENT, TYPE=C3D3
4127, 2680, 2657, 2708
*ELEMENT, TYPE=C3D3
4128, 1349, 1357, 1292
*ELEMENT, TYPE=C3D3
4129, 1409, 1349, 1404
*ELEMENT, TYPE=C3D3
4130, 2586, 2605, 2554
*ELEMENT, TYPE=C3D3
4131, 2708, 2657, 2685
*ELEMENT, TYPE=C3D3
4132, 1404, 1349, 1342
*ELEMENT, TYPE=C3D3
4133, 1409, 1404, 1471
*ELEMENT, TYPE=C3D3
4134, 2685, 2657, 2635
*ELEMENT, TYPE=C3D3
4135, 1342, 1349, 1286
*ELEMENT, TYPE=C3D3
4136, 1409, 1471, 1475
*ELEMENT, TYPE=C3D3
4137, 1286, 1349, 1292
*ELEMENT, TYPE=C3D3
4138, 1342, 1286, 1282
*ELEMENT, TYPE=C3D3
4139, 1475, 1471, 1533
*ELEMENT, TYPE=C3D3
4140, 1286, 1292, 1230
*ELEMENT, TYPE=C3D3
4141, 1282, 1286, 1224
*ELEMENT, TYPE=C3D3
4142, 1533, 1471, 1525
*ELEMENT, TYPE=C3D3
4143, 1230, 1292, 1237
*ELEMENT, TYPE=C3D3
4144, 1224, 1286, 1230
*ELEMENT, TYPE=C3D3
4145, 1525, 1471, 1465
*ELEMENT, TYPE=C3D3
4146, 1230, 1237, 1176
*ELEMENT, TYPE=C3D3
4147, 1465, 1471, 1404
*ELEMENT, TYPE=C3D3
4148, 1525, 1465, 1520
*ELEMENT, TYPE=C3D3
4149, 1176, 1237, 1187
*ELEMENT, TYPE=C3D3
4150, 1520, 1465, 1460
*ELEMENT, TYPE=C3D3
4151, 1525, 1520, 1576
*ELEMENT, TYPE=C3D3
4152, 1187, 1237, 1248
*ELEMENT, TYPE=C3D3
4153, 1460, 1465, 1400
*ELEMENT, TYPE=C3D3
4154, 1576, 1520, 1573
*ELEMENT, TYPE=C3D3
4155, 1400, 1465, 1404
*ELEMENT, TYPE=C3D3
4156, 1460, 1400, 1398
*ELEMENT, TYPE=C3D3
4157, 1573, 1520, 1515
*ELEMENT, TYPE=C3D3
4158, 1398, 1400, 1337
*ELEMENT, TYPE=C3D3
4159, 1460, 1398, 1458
*ELEMENT, TYPE=C3D3
4160, 1515, 1520, 1460
*ELEMENT, TYPE=C3D3
4161, 1337, 1400, 1342
*ELEMENT, TYPE=C3D3
4162, 1458, 1398, 1396
*ELEMENT, TYPE=C3D3
4163, 1342, 1400, 1404
*ELEMENT, TYPE=C3D3
4164, 1337, 1342, 1282
*ELEMENT, TYPE=C3D3
4165, 1396, 1398, 1333
*ELEMENT, TYPE=C3D3
4166, 1337, 1282, 1277
*ELEMENT, TYPE=C3D3
4167, 1333, 1398, 1337
*ELEMENT, TYPE=C3D3
4168, 1277, 1282, 1221
*ELEMENT, TYPE=C3D3
4169, 1333, 1337, 1277
*ELEMENT, TYPE=C3D3
4170, 1221, 1282, 1224
*ELEMENT, TYPE=C3D3
4171, 1333, 1277, 1276
*ELEMENT, TYPE=C3D3
4172, 1221, 1224, 1164
*ELEMENT, TYPE=C3D3
4173, 1276, 1277, 1218
*ELEMENT, TYPE=C3D3
4174, 1333, 1276, 1334
*ELEMENT, TYPE=C3D3
4175, 1164, 1224, 1170
*ELEMENT, TYPE=C3D3
4176, 1218, 1277, 1221
*ELEMENT, TYPE=C3D3
4177, 1334, 1276, 1279
*ELEMENT, TYPE=C3D3
4178, 1170, 1224, 1230
*ELEMENT, TYPE=C3D3
4179, 1279, 1276, 1219
*ELEMENT, TYPE=C3D3
4180, 1334, 1279, 1338
*ELEMENT, TYPE=C3D3
4181, 1219, 1276, 1218
*ELEMENT, TYPE=C3D3
4182, 1279, 1219, 1222
*ELEMENT, TYPE=C3D3
4183, 1338, 1279, 1283
*ELEMENT, TYPE=C3D3
4184, 1219, 1218, 1159
*ELEMENT, TYPE=C3D3
4185, 1222, 1219, 1162
*ELEMENT, TYPE=C3D3
4186, 1283, 1279, 1222
*ELEMENT, TYPE=C3D3
4187, 1159, 1218, 1160
*ELEMENT, TYPE=C3D3
4188, 1162, 1219, 1159
*ELEMENT, TYPE=C3D3
4189, 1160, 1218, 1221
*ELEMENT, TYPE=C3D3
4190, 1159, 1160, 1104
*ELEMENT, TYPE=C3D3
4191, 1160, 1221, 1164
*ELEMENT, TYPE=C3D3
4192, 1104, 1160, 1106
*ELEMENT, TYPE=C3D3
4193, 1160, 1164, 1106
*ELEMENT, TYPE=C3D3
4194, 1106, 1164, 1112
*ELEMENT, TYPE=C3D3
4195, 1112, 1164, 1170
*ELEMENT, TYPE=C3D3
4196, 1106, 1112, 1057
*ELEMENT, TYPE=C3D3
4197, 1112, 1170, 1118
*ELEMENT, TYPE=C3D3
4198, 1057, 1112, 1062
*ELEMENT, TYPE=C3D3
4199, 1106, 1057, 1053
*ELEMENT, TYPE=C3D3
4200, 1118, 1170, 1176
*ELEMENT, TYPE=C3D3
4201, 1062, 1112, 1118
*ELEMENT, TYPE=C3D3
4202, 1053, 1057, 1002
*ELEMENT, TYPE=C3D3
4203, 1176, 1170, 1230
*ELEMENT, TYPE=C3D3
4204, 1002, 1057, 1007
*ELEMENT, TYPE=C3D3
4205, 1053, 1002, 998
*ELEMENT, TYPE=C3D3
4206, 1007, 1057, 1062
*ELEMENT, TYPE=C3D3
4207, 998, 1002, 949
*ELEMENT, TYPE=C3D3
4208, 1053, 998, 1052
*ELEMENT, TYPE=C3D3
4209, 949, 1002, 952
*ELEMENT, TYPE=C3D3
4210, 998, 949, 948
*ELEMENT, TYPE=C3D3
4211, 1052, 998, 999
*ELEMENT, TYPE=C3D3
4212, 952, 1002, 1007
*ELEMENT, TYPE=C3D3
4213, 948, 949, 895
*ELEMENT, TYPE=C3D3
4214, 999, 998, 948
*ELEMENT, TYPE=C3D3
4215, 895, 949, 897
*ELEMENT, TYPE=C3D3
4216, 948, 895, 896
*ELEMENT, TYPE=C3D3
4217, 897, 949, 952
*ELEMENT, TYPE=C3D3
4218, 895, 897, 849
*ELEMENT, TYPE=C3D3
4219, 896, 895, 848
*ELEMENT, TYPE=C3D3
4220, 849, 897, 854
*ELEMENT, TYPE=C3D3
4221, 895, 849, 848
*ELEMENT, TYPE=C3D3
4222, 854, 897, 903
*ELEMENT, TYPE=C3D3
4223, 848, 849, 802
*ELEMENT, TYPE=C3D3
4224, 903, 897, 952
*ELEMENT, TYPE=C3D3
4225, 854, 903, 859
*ELEMENT, TYPE=C3D3
4226, 802, 849, 804
*ELEMENT, TYPE=C3D3
4227, 859, 903, 911
*ELEMENT, TYPE=C3D3
4228, 854, 859, 807
*ELEMENT, TYPE=C3D3
4229, 804, 849, 854
*ELEMENT, TYPE=C3D3
4230, 911, 903, 954
*ELEMENT, TYPE=C3D3
4231, 807, 859, 810
*ELEMENT, TYPE=C3D3
4232, 804, 854, 807
*ELEMENT, TYPE=C3D3
4233, 954, 903, 952
*ELEMENT, TYPE=C3D3
4234, 810, 859, 862
*ELEMENT, TYPE=C3D3
4235, 954, 952, 1007
*ELEMENT, TYPE=C3D3
4236, 862, 859, 911
*ELEMENT, TYPE=C3D3
4237, 954, 1007, 1011
*ELEMENT, TYPE=C3D3
4238, 862, 911, 918
*ELEMENT, TYPE=C3D3
4239, 1011, 1007, 1062
*ELEMENT, TYPE=C3D3
4240, 918, 911, 962
*ELEMENT, TYPE=C3D3
4241, 1011, 1062, 1069
*ELEMENT, TYPE=C3D3
4242, 962, 911, 954
*ELEMENT, TYPE=C3D3
4243, 1069, 1062, 1118
*ELEMENT, TYPE=C3D3
4244, 1011, 1069, 1017
*ELEMENT, TYPE=C3D3
4245, 1069, 1118, 1127
*ELEMENT, TYPE=C3D3
4246, 1017, 1069, 1075
*ELEMENT, TYPE=C3D3
4247, 1127, 1118, 1176
*ELEMENT, TYPE=C3D3
4248, 1069, 1127, 1075
*ELEMENT, TYPE=C3D3
4249, 1127, 1176, 1187
*ELEMENT, TYPE=C3D3
4250, 1075, 1127, 1136
*ELEMENT, TYPE=C3D3
4251, 1127, 1187, 1136
*ELEMENT, TYPE=C3D3
4252, 1136, 1187, 1197
*ELEMENT, TYPE=C3D3
4253, 1197, 1187, 1248
*ELEMENT, TYPE=C3D3
4254, 1136, 1197, 1144
*ELEMENT, TYPE=C3D3
4255, 1144, 1197, 1204
*ELEMENT, TYPE=C3D3
4256, 1144, 1204, 1156
*ELEMENT, TYPE=C3D3
4257, 2708, 2685, 2740
*ELEMENT, TYPE=C3D3
4258, 2740, 2685, 2717
*ELEMENT, TYPE=C3D3
4259, 2708, 2740, 2759
*ELEMENT, TYPE=C3D3
4260, 2717, 2685, 2664
*ELEMENT, TYPE=C3D3
4261, 2759, 2740, 2782
*ELEMENT, TYPE=C3D3
4262, 2664, 2685, 2635
*ELEMENT, TYPE=C3D3
4263, 2782, 2740, 2767
*ELEMENT, TYPE=C3D3
4264, 2759, 2782, 2818
*ELEMENT, TYPE=C3D3
4265, 2818, 2782, 2823
*ELEMENT, TYPE=C3D3
4266, 2823, 2782, 2767
*ELEMENT, TYPE=C3D3
4267, 2767, 2740, 2717
*ELEMENT, TYPE=C3D3
4268, 2818, 2823, 2860
*ELEMENT, TYPE=C3D3
4269, 2767, 2717, 2742
*ELEMENT, TYPE=C3D3
4270, 2742, 2717, 2691
*ELEMENT, TYPE=C3D3
4271, 2767, 2742, 2804
*ELEMENT, TYPE=C3D3
4272, 2691, 2717, 2664
*ELEMENT, TYPE=C3D3
4273, 2691, 2664, 2638
*ELEMENT, TYPE=C3D3
4274, 2638, 2664, 2613
*ELEMENT, TYPE=C3D3
4275, 2691, 2638, 2669
*ELEMENT, TYPE=C3D3
4276, 2613, 2664, 2635
*ELEMENT, TYPE=C3D3
4277, 2669, 2638, 2621
*ELEMENT, TYPE=C3D3
4278, 2621, 2638, 2590
*ELEMENT, TYPE=C3D3
4279, 2669, 2621, 2652
*ELEMENT, TYPE=C3D3
4280, 2590, 2638, 2613
*ELEMENT, TYPE=C3D3
4281, 2652, 2621, 2597
*ELEMENT, TYPE=C3D3
4282, 2669, 2652, 2700
*ELEMENT, TYPE=C3D3
4283, 2597, 2621, 2568
*ELEMENT, TYPE=C3D3
4284, 2652, 2597, 2630
*ELEMENT, TYPE=C3D3
4285, 2700, 2652, 2678
*ELEMENT, TYPE=C3D3
4286, 2568, 2621, 2590
*ELEMENT, TYPE=C3D3
4287, 2630, 2597, 2581
*ELEMENT, TYPE=C3D3
4288, 2678, 2652, 2630
*ELEMENT, TYPE=C3D3
4289, 2581, 2597, 2548
*ELEMENT, TYPE=C3D3
4290, 2630, 2581, 2610
*ELEMENT, TYPE=C3D3
4291, 2548, 2597, 2568
*ELEMENT, TYPE=C3D3
4292, 2581, 2548, 2526
*ELEMENT, TYPE=C3D3
4293, 2610, 2581, 2557
*ELEMENT, TYPE=C3D3
4294, 2526, 2548, 2500
*ELEMENT, TYPE=C3D3
4295, 2581, 2526, 2557
*ELEMENT, TYPE=C3D3
4296, 2500, 2548, 2518
*ELEMENT, TYPE=C3D3
4297, 2557, 2526, 2508
*ELEMENT, TYPE=C3D3
4298, 2518, 2548, 2568
*ELEMENT, TYPE=C3D3
4299, 2500, 2518, 2471
*ELEMENT, TYPE=C3D3
4300, 2508, 2526, 2476
*ELEMENT, TYPE=C3D3
4301, 2471, 2518, 2491
*ELEMENT, TYPE=C3D3
4302, 2500, 2471, 2451
*ELEMENT, TYPE=C3D3
4303, 2476, 2526, 2500
*ELEMENT, TYPE=C3D3
4304, 2491, 2518, 2541
*ELEMENT, TYPE=C3D3
4305, 2451, 2471, 2420
*ELEMENT, TYPE=C3D3
4306, 2476, 2500, 2451
*ELEMENT, TYPE=C3D3
4307, 2541, 2518, 2568
*ELEMENT, TYPE=C3D3
4308, 2420, 2471, 2438
*ELEMENT, TYPE=C3D3
4309, 2541, 2568, 2590
*ELEMENT, TYPE=C3D3
4310, 2438, 2471, 2491
*ELEMENT, TYPE=C3D3
4311, 2541, 2590, 2563
*ELEMENT, TYPE=C3D3
4312, 2438, 2491, 2464
*ELEMENT, TYPE=C3D3
4313, 2563, 2590, 2613
*ELEMENT, TYPE=C3D3
4314, 2464, 2491, 2512
*ELEMENT, TYPE=C3D3
4315, 2563, 2613, 2586
*ELEMENT, TYPE=C3D3
4316, 2512, 2491, 2541
*ELEMENT, TYPE=C3D3
4317, 2586, 2613, 2635
*ELEMENT, TYPE=C3D3
4318, 2563, 2586, 2537
*ELEMENT, TYPE=C3D3
4319, 2537, 2586, 2554
*ELEMENT, TYPE=C3D3
4320, 2537, 2554, 2505
*ELEMENT, TYPE=C3D3
4321, 1396, 1333, 1334
*ELEMENT, TYPE=C3D3
4322, 1396, 1334, 1399
*ELEMENT, TYPE=C3D3
4323, 1399, 1334, 1338
*ELEMENT, TYPE=C3D3
4324, 1399, 1338, 1402
*ELEMENT, TYPE=C3D3
4325, 1402, 1338, 1343
*ELEMENT, TYPE=C3D3
4326, 1343, 1338, 1283
*ELEMENT, TYPE=C3D3
4327, 1402, 1343, 1407
*ELEMENT, TYPE=C3D3
4328, 1343, 1283, 1289
*ELEMENT, TYPE=C3D3
4329, 1407, 1343, 1350
*ELEMENT, TYPE=C3D3
4330, 1289, 1283, 1226
*ELEMENT, TYPE=C3D3
4331, 1350, 1343, 1289
*ELEMENT, TYPE=C3D3
4332, 1226, 1283, 1222
*ELEMENT, TYPE=C3D3
4333, 1350, 1289, 1293
*ELEMENT, TYPE=C3D3
4334, 1226, 1222, 1165
*ELEMENT, TYPE=C3D3
4335, 1293, 1289, 1231
*ELEMENT, TYPE=C3D3
4336, 1350, 1293, 1358
*ELEMENT, TYPE=C3D3
4337, 1165, 1222, 1162
*ELEMENT, TYPE=C3D3
4338, 1231, 1289, 1226
*ELEMENT, TYPE=C3D3
4339, 1358, 1293, 1304
*ELEMENT, TYPE=C3D3
4340, 1231, 1226, 1171
*ELEMENT, TYPE=C3D3
4341, 1304, 1293, 1239
*ELEMENT, TYPE=C3D3
4342, 1358, 1304, 1367
*ELEMENT, TYPE=C3D3
4343, 1171, 1226, 1165
*ELEMENT, TYPE=C3D3
4344, 1239, 1293, 1231
*ELEMENT, TYPE=C3D3
4345, 1367, 1304, 1311
*ELEMENT, TYPE=C3D3
4346, 1171, 1165, 1113
*ELEMENT, TYPE=C3D3
4347, 1239, 1231, 1177
*ELEMENT, TYPE=C3D3
4348, 1311, 1304, 1251
*ELEMENT, TYPE=C3D3
4349, 1113, 1165, 1107
*ELEMENT, TYPE=C3D3
4350, 1177, 1231, 1171
*ELEMENT, TYPE=C3D3
4351, 1251, 1304, 1239
*ELEMENT, TYPE=C3D3
4352, 1107, 1165, 1162
*ELEMENT, TYPE=C3D3
4353, 1251, 1239, 1189
*ELEMENT, TYPE=C3D3
4354, 1107, 1162, 1105
*ELEMENT, TYPE=C3D3
4355, 1189, 1239, 1177
*ELEMENT, TYPE=C3D3
4356, 1105, 1162, 1159
*ELEMENT, TYPE=C3D3
4357, 1107, 1105, 1054
*ELEMENT, TYPE=C3D3
4358, 1189, 1177, 1129
*ELEMENT, TYPE=C3D3
4359, 1105, 1159, 1104
*ELEMENT, TYPE=C3D3
4360, 1054, 1105, 1052
*ELEMENT, TYPE=C3D3
4361, 1129, 1177, 1120
*ELEMENT, TYPE=C3D3
4362, 1105, 1104, 1052
*ELEMENT, TYPE=C3D3
4363, 1120, 1177, 1171
*ELEMENT, TYPE=C3D3
4364, 1052, 1104, 1053
*ELEMENT, TYPE=C3D3
4365, 1120, 1171, 1113
*ELEMENT, TYPE=C3D3
4366, 1053, 1104, 1106
*ELEMENT, TYPE=C3D3
4367, 2708, 2759, 2737
*ELEMENT, TYPE=C3D3
4368, 2737, 2759, 2773
*ELEMENT, TYPE=C3D3
4369, 2737, 2773, 2735
*ELEMENT, TYPE=C3D3
4370, 2735, 2773, 2770
*ELEMENT, TYPE=C3D3
4371, 2735, 2770, 2732
*ELEMENT, TYPE=C3D3
4372, 2737, 2735, 2680
*ELEMENT, TYPE=C3D3
4373, 2732, 2770, 2772
*ELEMENT, TYPE=C3D3
4374, 2732, 2772, 2729
*ELEMENT, TYPE=C3D3
4375, 2735, 2732, 2688
*ELEMENT, TYPE=C3D3
4376, 2729, 2772, 2779
*ELEMENT, TYPE=C3D3
4377, 2732, 2729, 2687
*ELEMENT, TYPE=C3D3
4378, 2688, 2732, 2687
*ELEMENT, TYPE=C3D3
4379, 2688, 2687, 2641
*ELEMENT, TYPE=C3D3
4380, 2735, 2688, 2680
*ELEMENT, TYPE=C3D3
4381, 2641, 2687, 2640
*ELEMENT, TYPE=C3D3
4382, 2688, 2641, 2645
*ELEMENT, TYPE=C3D3
4383, 2779, 2772, 2814
*ELEMENT, TYPE=C3D3
4384, 2779, 2814, 2817
*ELEMENT, TYPE=C3D3
4385, 2779, 2817, 2775
*ELEMENT, TYPE=C3D3
4386, 2775, 2817, 2820
*ELEMENT, TYPE=C3D3
4387, 2779, 2775, 2731
*ELEMENT, TYPE=C3D3
4388, 2729, 2779, 2731
*ELEMENT, TYPE=C3D3
4389, 2729, 2731, 2686
*ELEMENT, TYPE=C3D3
4390, 2686, 2731, 2690
*ELEMENT, TYPE=C3D3
4391, 2729, 2686, 2687
*ELEMENT, TYPE=C3D3
4392, 2687, 2686, 2640
*ELEMENT, TYPE=C3D3
4393, 2640, 2686, 2644
*ELEMENT, TYPE=C3D3
4394, 2644, 2686, 2690
*ELEMENT, TYPE=C3D3
4395, 2644, 2690, 2651
*ELEMENT, TYPE=C3D3
4396, 2640, 2644, 2599
*ELEMENT, TYPE=C3D3
4397, 2690, 2731, 2739
*ELEMENT, TYPE=C3D3
4398, 2651, 2690, 2695
*ELEMENT, TYPE=C3D3
4399, 2644, 2651, 2601
*ELEMENT, TYPE=C3D3
4400, 2820, 2817, 2859
*ELEMENT, TYPE=C3D3
4401, 2775, 2820, 2776
*ELEMENT, TYPE=C3D3
4402, 2731, 2775, 2739
*ELEMENT, TYPE=C3D3
4403, 2739, 2775, 2776
*ELEMENT, TYPE=C3D3
4404, 2739, 2776, 2730
*ELEMENT, TYPE=C3D3
4405, 2730, 2776, 2787
*ELEMENT, TYPE=C3D3
4406, 2739, 2730, 2695
*ELEMENT, TYPE=C3D3
4407, 2695, 2730, 2692
*ELEMENT, TYPE=C3D3
4408, 2692, 2730, 2741
*ELEMENT, TYPE=C3D3
4409, 2695, 2692, 2653
*ELEMENT, TYPE=C3D3
4410, 2741, 2730, 2787
*ELEMENT, TYPE=C3D3
4411, 2741, 2787, 2774
*ELEMENT, TYPE=C3D3
4412, 2692, 2741, 2694
*ELEMENT, TYPE=C3D3
4413, 2653, 2692, 2648
*ELEMENT, TYPE=C3D3
4414, 2695, 2653, 2651
*ELEMENT, TYPE=C3D3
4415, 2651, 2653, 2602
*ELEMENT, TYPE=C3D3
4416, 2602, 2653, 2611
*ELEMENT, TYPE=C3D3
4417, 2651, 2602, 2601
*ELEMENT, TYPE=C3D3
4418, 2601, 2602, 2558
*ELEMENT, TYPE=C3D3
4419, 2558, 2602, 2567
*ELEMENT, TYPE=C3D3
4420, 2601, 2558, 2560
*ELEMENT, TYPE=C3D3
4421, 2611, 2653, 2648
*ELEMENT, TYPE=C3D3
4422, 2611, 2648, 2606
*ELEMENT, TYPE=C3D3
4423, 2606, 2648, 2663
*ELEMENT, TYPE=C3D3
4424, 2611, 2606, 2566
*ELEMENT, TYPE=C3D3
4425, 2567, 2602, 2611
*ELEMENT, TYPE=C3D3
4426, 2567, 2611, 2566
*ELEMENT, TYPE=C3D3
4427, 2567, 2566, 2519
*ELEMENT, TYPE=C3D3
4428, 2519, 2566, 2523
*ELEMENT, TYPE=C3D3
4429, 2567, 2519, 2529
*ELEMENT, TYPE=C3D3
4430, 2663, 2648, 2694
*ELEMENT, TYPE=C3D3
4431, 2523, 2566, 2572
*ELEMENT, TYPE=C3D3
4432, 2529, 2519, 2481
*ELEMENT, TYPE=C3D3
4433, 2560, 2558, 2517
*ELEMENT, TYPE=C3D3
4434, 2606, 2663, 2616
*ELEMENT, TYPE=C3D3
4435, 2558, 2567, 2529
*ELEMENT, TYPE=C3D3
4436, 2558, 2529, 2517
*ELEMENT, TYPE=C3D3
4437, 2517, 2529, 2481
*ELEMENT, TYPE=C3D3
4438, 2566, 2606, 2572
*ELEMENT, TYPE=C3D3
4439, 2572, 2606, 2616
*ELEMENT, TYPE=C3D3
4440, 2572, 2616, 2573
*ELEMENT, TYPE=C3D3
4441, 2601, 2560, 2599
*ELEMENT, TYPE=C3D3
4442, 2599, 2560, 2555
*ELEMENT, TYPE=C3D3
4443, 2555, 2560, 2509
*ELEMENT, TYPE=C3D3
4444, 2599, 2555, 2591
*ELEMENT, TYPE=C3D3
4445, 2519, 2523, 2478
*ELEMENT, TYPE=C3D3
4446, 2739, 2695, 2690
*ELEMENT, TYPE=C3D3
4447, 2555, 2509, 2536
*ELEMENT, TYPE=C3D3
4448, 2599, 2591, 2640
*ELEMENT, TYPE=C3D3
4449, 2640, 2591, 2641
*ELEMENT, TYPE=C3D3
4450, 2641, 2591, 2604
*ELEMENT, TYPE=C3D3
4451, 2509, 2560, 2517
*ELEMENT, TYPE=C3D3
4452, 2509, 2517, 2463
*ELEMENT, TYPE=C3D3
4453, 2463, 2517, 2481
*ELEMENT, TYPE=C3D3
4454, 2509, 2463, 2454
*ELEMENT, TYPE=C3D3
4455, 2591, 2555, 2536
*ELEMENT, TYPE=C3D3
4456, 2787, 2776, 2821
*ELEMENT, TYPE=C3D3
4457, 2601, 2599, 2644
*ELEMENT, TYPE=C3D3
4458, 2663, 2694, 2723
*ELEMENT, TYPE=C3D3
4459, 2723, 2694, 2741
*ELEMENT, TYPE=C3D3
4460, 2692, 2694, 2648
*ELEMENT, TYPE=C3D3
4461, 2821, 2776, 2820
*ELEMENT, TYPE=C3D3
4462, 2523, 2572, 2530
*ELEMENT, TYPE=C3D3
4463, 2787, 2821, 2842
*ELEMENT, TYPE=C3D3
4464, 2688, 2645, 2680
*ELEMENT, TYPE=C3D3
4465, 2519, 2478, 2481
*ELEMENT, TYPE=C3D3
4466, 2572, 2573, 2530
*ELEMENT, TYPE=C3D3
4467, 2530, 2573, 2535
*ELEMENT, TYPE=C3D3
4468, 2535, 2573, 2584
*ELEMENT, TYPE=C3D3
4469, 2584, 2573, 2625
*ELEMENT, TYPE=C3D3
4470, 2530, 2535, 2487
*ELEMENT, TYPE=C3D3
4471, 2487, 2535, 2490
*ELEMENT, TYPE=C3D3
4472, 2530, 2487, 2485
*ELEMENT, TYPE=C3D3
4473, 2490, 2535, 2514
*ELEMENT, TYPE=C3D3
4474, 2490, 2514, 2467
*ELEMENT, TYPE=C3D3
4475, 2467, 2514, 2498
*ELEMENT, TYPE=C3D3
4476, 2490, 2467, 2437
*ELEMENT, TYPE=C3D3
4477, 2487, 2490, 2437
*ELEMENT, TYPE=C3D3
4478, 2530, 2485, 2523
*ELEMENT, TYPE=C3D3
4479, 2523, 2485, 2478
*ELEMENT, TYPE=C3D3
4480, 2478, 2485, 2439
*ELEMENT, TYPE=C3D3
4481, 2439, 2485, 2445
*ELEMENT, TYPE=C3D3
4482, 2478, 2439, 2434
*ELEMENT, TYPE=C3D3
4483, 2445, 2485, 2487
*ELEMENT, TYPE=C3D3
4484, 2445, 2487, 2437
*ELEMENT, TYPE=C3D3
4485, 2439, 2445, 2400
*ELEMENT, TYPE=C3D3
4486, 2434, 2439, 2393
*ELEMENT, TYPE=C3D3
4487, 2478, 2434, 2481
*ELEMENT, TYPE=C3D3
4488, 2437, 2467, 2416
*ELEMENT, TYPE=C3D3
4489, 2645, 2641, 2604
*ELEMENT, TYPE=C3D3
4490, 2645, 2604, 2632
*ELEMENT, TYPE=C3D3
4491, 2645, 2632, 2680
*ELEMENT, TYPE=C3D3
4492, 2616, 2663, 2654
*ELEMENT, TYPE=C3D3
4493, 2616, 2654, 2625
*ELEMENT, TYPE=C3D3
4494, 2573, 2616, 2625
*ELEMENT, TYPE=C3D3
4495, 2708, 2737, 2680
*ELEMENT, TYPE=C3D3
4496, 2400, 2445, 2403
*ELEMENT, TYPE=C3D3
4497, 2400, 2403, 2365
*ELEMENT, TYPE=C3D3
4498, 2365, 2403, 2373
*ELEMENT, TYPE=C3D3
4499, 2373, 2437, 2416
*ELEMENT, TYPE=C3D3
4500, 1402, 1407, 1466
*ELEMENT, TYPE=C3D3
4501, 1466, 1407, 1472
*ELEMENT, TYPE=C3D3
4502, 1402, 1466, 1462
*ELEMENT, TYPE=C3D3
4503, 1472, 1407, 1413
*ELEMENT, TYPE=C3D3
4504, 1462, 1466, 1523
*ELEMENT, TYPE=C3D3
4505, 1413, 1407, 1350
*ELEMENT, TYPE=C3D3
4506, 1523, 1466, 1528
*ELEMENT, TYPE=C3D3
4507, 1413, 1350, 1358
*ELEMENT, TYPE=C3D3
4508, 1528, 1466, 1472
*ELEMENT, TYPE=C3D3
4509, 1523, 1528, 1577
*ELEMENT, TYPE=C3D3
4510, 1528, 1472, 1534
*ELEMENT, TYPE=C3D3
4511, 1577, 1528, 1585
*ELEMENT, TYPE=C3D3
4512, 1534, 1472, 1477
*ELEMENT, TYPE=C3D3
4513, 1528, 1534, 1585
*ELEMENT, TYPE=C3D3
4514, 1477, 1472, 1413
*ELEMENT, TYPE=C3D3
4515, 1585, 1534, 1583
*ELEMENT, TYPE=C3D3
4516, 1477, 1413, 1424
*ELEMENT, TYPE=C3D3
4517, 1583, 1534, 1545
*ELEMENT, TYPE=C3D3
4518, 1424, 1413, 1358
*ELEMENT, TYPE=C3D3
4519, 1477, 1424, 1490
*ELEMENT, TYPE=C3D3
4520, 1545, 1534, 1477
*ELEMENT, TYPE=C3D3
4521, 1424, 1358, 1367
*ELEMENT, TYPE=C3D3
4522, 1490, 1424, 1431
*ELEMENT, TYPE=C3D3
4523, 1545, 1477, 1490
*ELEMENT, TYPE=C3D3
4524, 1424, 1367, 1431
*ELEMENT, TYPE=C3D3
4525, 1431, 1367, 1376
*ELEMENT, TYPE=C3D3
4526, 1376, 1367, 1311
*ELEMENT, TYPE=C3D3
4527, 1431, 1376, 1441
*ELEMENT, TYPE=C3D3
4528, 1376, 1311, 1326
*ELEMENT, TYPE=C3D3
4529, 1441, 1376, 1391
*ELEMENT, TYPE=C3D3
4530, 1431, 1441, 1499
*ELEMENT, TYPE=C3D3
4531, 1326, 1311, 1261
*ELEMENT, TYPE=C3D3
4532, 1391, 1376, 1326
*ELEMENT, TYPE=C3D3
4533, 1499, 1441, 1529
*ELEMENT, TYPE=C3D3
4534, 1261, 1311, 1251
*ELEMENT, TYPE=C3D3
4535, 1529, 1441, 1454
*ELEMENT, TYPE=C3D3
4536, 1499, 1529, 1562
*ELEMENT, TYPE=C3D3
4537, 1261, 1251, 1199
*ELEMENT, TYPE=C3D3
4538, 1454, 1441, 1391
*ELEMENT, TYPE=C3D3
4539, 1562, 1529, 1608
*ELEMENT, TYPE=C3D3
4540, 1199, 1251, 1189
*ELEMENT, TYPE=C3D3
4541, 1454, 1391, 1403
*ELEMENT, TYPE=C3D3
4542, 1199, 1189, 1137
*ELEMENT, TYPE=C3D3
4543, 1403, 1391, 1332
*ELEMENT, TYPE=C3D3
4544, 1454, 1403, 1478
*ELEMENT, TYPE=C3D3
4545, 1137, 1189, 1129
*ELEMENT, TYPE=C3D3
4546, 1332, 1391, 1326
*ELEMENT, TYPE=C3D3
4547, 1478, 1403, 1422
*ELEMENT, TYPE=C3D3
4548, 1332, 1326, 1269
*ELEMENT, TYPE=C3D3
4549, 1422, 1403, 1353
*ELEMENT, TYPE=C3D3
4550, 1478, 1422, 1492
*ELEMENT, TYPE=C3D3
4551, 1269, 1326, 1261
*ELEMENT, TYPE=C3D3
4552, 1353, 1403, 1332
*ELEMENT, TYPE=C3D3
4553, 1492, 1422, 1437
*ELEMENT, TYPE=C3D3
4554, 1353, 1332, 1288
*ELEMENT, TYPE=C3D3
4555, 1437, 1422, 1372
*ELEMENT, TYPE=C3D3
4556, 1288, 1332, 1269
*ELEMENT, TYPE=C3D3
4557, 1353, 1288, 1305
*ELEMENT, TYPE=C3D3
4558, 1372, 1422, 1353
*ELEMENT, TYPE=C3D3
4559, 1288, 1269, 1223
*ELEMENT, TYPE=C3D3
4560, 1305, 1288, 1238
*ELEMENT, TYPE=C3D3
4561, 1372, 1353, 1305
*ELEMENT, TYPE=C3D3
4562, 1223, 1269, 1206
*ELEMENT, TYPE=C3D3
4563, 1238, 1288, 1223
*ELEMENT, TYPE=C3D3
4564, 1206, 1269, 1261
*ELEMENT, TYPE=C3D3
4565, 1223, 1206, 1157
*ELEMENT, TYPE=C3D3
4566, 1206, 1261, 1199
*ELEMENT, TYPE=C3D3
4567, 1157, 1206, 1149
*ELEMENT, TYPE=C3D3
4568, 1206, 1199, 1149
*ELEMENT, TYPE=C3D3
4569, 1149, 1199, 1137
*ELEMENT, TYPE=C3D3
4570, 1149, 1137, 1089
*ELEMENT, TYPE=C3D3
4571, 1089, 1137, 1076
*ELEMENT, TYPE=C3D3
4572, 1149, 1089, 1096
*ELEMENT, TYPE=C3D3
4573, 1076, 1137, 1129
*ELEMENT, TYPE=C3D3
4574, 1096, 1089, 1039
*ELEMENT, TYPE=C3D3
4575, 1149, 1096, 1157
*ELEMENT, TYPE=C3D3
4576, 1039, 1089, 1030
*ELEMENT, TYPE=C3D3
4577, 1096, 1039, 1051
*ELEMENT, TYPE=C3D3
4578, 1157, 1096, 1111
*ELEMENT, TYPE=C3D3
4579, 1039, 1030, 982
*ELEMENT, TYPE=C3D3
4580, 1051, 1039, 994
*ELEMENT, TYPE=C3D3
4581, 1111, 1096, 1051
*ELEMENT, TYPE=C3D3
4582, 982, 1030, 975
*ELEMENT, TYPE=C3D3
4583, 994, 1039, 982
*ELEMENT, TYPE=C3D3
4584, 975, 1030, 1020
*ELEMENT, TYPE=C3D3
4585, 982, 975, 927
*ELEMENT, TYPE=C3D3
4586, 1020, 1030, 1076
*ELEMENT, TYPE=C3D3
4587, 975, 1020, 966
*ELEMENT, TYPE=C3D3
4588, 927, 975, 919
*ELEMENT, TYPE=C3D3
4589, 1076, 1030, 1089
*ELEMENT, TYPE=C3D3
4590, 966, 1020, 1012
*ELEMENT, TYPE=C3D3
4591, 919, 975, 966
*ELEMENT, TYPE=C3D3
4592, 1012, 1020, 1072
*ELEMENT, TYPE=C3D3
4593, 1072, 1020, 1076
*ELEMENT, TYPE=C3D3
4594, 1012, 1072, 1063
*ELEMENT, TYPE=C3D3
4595, 1072, 1076, 1129
*ELEMENT, TYPE=C3D3
4596, 1063, 1072, 1120
*ELEMENT, TYPE=C3D3
4597, 1120, 1072, 1129
*ELEMENT, TYPE=C3D3
4598, 1063, 1120, 1113
*ELEMENT, TYPE=C3D3
4599, 1063, 1113, 1058
*ELEMENT, TYPE=C3D3
4600, 1058, 1113, 1107
*ELEMENT, TYPE=C3D3
4601, 1058, 1107, 1054
*ELEMENT, TYPE=C3D3
4602, 1058, 1054, 1003
*ELEMENT, TYPE=C3D3
4603, 1003, 1054, 999
*ELEMENT, TYPE=C3D3
4604, 1058, 1003, 1009
*ELEMENT, TYPE=C3D3
4605, 999, 1054, 1052
*ELEMENT, TYPE=C3D3
4606, 1009, 1003, 953
*ELEMENT, TYPE=C3D3
4607, 953, 1003, 950
*ELEMENT, TYPE=C3D3
4608, 1009, 953, 957
*ELEMENT, TYPE=C3D3
4609, 950, 1003, 999
*ELEMENT, TYPE=C3D3
4610, 957, 953, 905
*ELEMENT, TYPE=C3D3
4611, 905, 953, 899
*ELEMENT, TYPE=C3D3
4612, 957, 905, 912
*ELEMENT, TYPE=C3D3
4613, 899, 953, 950
*ELEMENT, TYPE=C3D3
4614, 912, 905, 860
*ELEMENT, TYPE=C3D3
4615, 860, 905, 855
*ELEMENT, TYPE=C3D3
4616, 912, 860, 864
*ELEMENT, TYPE=C3D3
4617, 855, 905, 899
*ELEMENT, TYPE=C3D3
4618, 864, 860, 813
*ELEMENT, TYPE=C3D3
4619, 912, 864, 919
*ELEMENT, TYPE=C3D3
4620, 813, 860, 808
*ELEMENT, TYPE=C3D3
4621, 864, 813, 825
*ELEMENT, TYPE=C3D3
4622, 919, 864, 874
*ELEMENT, TYPE=C3D3
4623, 808, 860, 855
*ELEMENT, TYPE=C3D3
4624, 825, 813, 775
*ELEMENT, TYPE=C3D3
4625, 874, 864, 825
*ELEMENT, TYPE=C3D3
4626, 775, 813, 766
*ELEMENT, TYPE=C3D3
4627, 825, 775, 781
*ELEMENT, TYPE=C3D3
4628, 766, 813, 808
*ELEMENT, TYPE=C3D3
4629, 775, 766, 724
*ELEMENT, TYPE=C3D3
4630, 781, 775, 733
*ELEMENT, TYPE=C3D3
4631, 724, 766, 720
*ELEMENT, TYPE=C3D3
4632, 775, 724, 733
*ELEMENT, TYPE=C3D3
4633, 720, 766, 758
*ELEMENT, TYPE=C3D3
4634, 733, 724, 685
*ELEMENT, TYPE=C3D3
4635, 758, 766, 808
*ELEMENT, TYPE=C3D3
4636, 720, 758, 716
*ELEMENT, TYPE=C3D3
4637, 685, 724, 678
*ELEMENT, TYPE=C3D3
4638, 716, 758, 755
*ELEMENT, TYPE=C3D3
4639, 720, 716, 674
*ELEMENT, TYPE=C3D3
4640, 678, 724, 720
*ELEMENT, TYPE=C3D3
4641, 755, 758, 805
*ELEMENT, TYPE=C3D3
4642, 674, 716, 671
*ELEMENT, TYPE=C3D3
4643, 678, 720, 674
*ELEMENT, TYPE=C3D3
4644, 805, 758, 808
*ELEMENT, TYPE=C3D3
4645, 671, 716, 711
*ELEMENT, TYPE=C3D3
4646, 805, 808, 855
*ELEMENT, TYPE=C3D3
4647, 711, 716, 755
*ELEMENT, TYPE=C3D3
4648, 805, 855, 850
*ELEMENT, TYPE=C3D3
4649, 711, 755, 752
*ELEMENT, TYPE=C3D3
4650, 850, 855, 899
*ELEMENT, TYPE=C3D3
4651, 752, 755, 803
*ELEMENT, TYPE=C3D3
4652, 850, 899, 896
*ELEMENT, TYPE=C3D3
4653, 803, 755, 805
*ELEMENT, TYPE=C3D3
4654, 896, 899, 950
*ELEMENT, TYPE=C3D3
4655, 850, 896, 848
*ELEMENT, TYPE=C3D3
4656, 896, 950, 948
*ELEMENT, TYPE=C3D3
4657, 850, 848, 803
*ELEMENT, TYPE=C3D3
4658, 948, 950, 999
*ELEMENT, TYPE=C3D3
4659, 803, 848, 802
*ELEMENT, TYPE=C3D3
4660, 803, 802, 752
*ELEMENT, TYPE=C3D3
4661, 752, 802, 754
*ELEMENT, TYPE=C3D3
4662, 754, 802, 804
*ELEMENT, TYPE=C3D3
4663, 752, 754, 709
*ELEMENT, TYPE=C3D3
4664, 754, 804, 757
*ELEMENT, TYPE=C3D3
4665, 709, 754, 712
*ELEMENT, TYPE=C3D3
4666, 757, 804, 807
*ELEMENT, TYPE=C3D3
4667, 712, 754, 757
*ELEMENT, TYPE=C3D3
4668, 757, 807, 765
*ELEMENT, TYPE=C3D3
4669, 712, 757, 718
*ELEMENT, TYPE=C3D3
4670, 765, 807, 810
*ELEMENT, TYPE=C3D3
4671, 718, 757, 765
*ELEMENT, TYPE=C3D3
4672, 765, 810, 773
*ELEMENT, TYPE=C3D3
4673, 718, 765, 723
*ELEMENT, TYPE=C3D3
4674, 773, 810, 823
*ELEMENT, TYPE=C3D3
4675, 723, 765, 773
*ELEMENT, TYPE=C3D3
4676, 823, 810, 862
*ELEMENT, TYPE=C3D3
4677, 773, 823, 779
*ELEMENT, TYPE=C3D3
4678, 823, 862, 873
*ELEMENT, TYPE=C3D3
4679, 779, 823, 830
*ELEMENT, TYPE=C3D3
4680, 873, 862, 918
*ELEMENT, TYPE=C3D3
4681, 823, 873, 830
*ELEMENT, TYPE=C3D3
4682, 873, 918, 925
*ELEMENT, TYPE=C3D3
4683, 830, 873, 882
*ELEMENT, TYPE=C3D3
4684, 925, 918, 974
*ELEMENT, TYPE=C3D3
4685, 873, 925, 882
*ELEMENT, TYPE=C3D3
4686, 974, 918, 962
*ELEMENT, TYPE=C3D3
4687, 882, 925, 937
*ELEMENT, TYPE=C3D3
4688, 974, 962, 1017
*ELEMENT, TYPE=C3D3
4689, 937, 925, 979
*ELEMENT, TYPE=C3D3
4690, 1017, 962, 1011
*ELEMENT, TYPE=C3D3
4691, 974, 1017, 1029
*ELEMENT, TYPE=C3D3
4692, 979, 925, 974
*ELEMENT, TYPE=C3D3
4693, 1011, 962, 954
*ELEMENT, TYPE=C3D3
4694, 1029, 1017, 1075
*ELEMENT, TYPE=C3D3
4695, 979, 974, 1029
*ELEMENT, TYPE=C3D3
4696, 1029, 1075, 1087
*ELEMENT, TYPE=C3D3
4697, 1087, 1075, 1136
*ELEMENT, TYPE=C3D3
4698, 1029, 1087, 1036
*ELEMENT, TYPE=C3D3
4699, 1036, 1087, 1095
*ELEMENT, TYPE=C3D3
4700, 1029, 1036, 979
*ELEMENT, TYPE=C3D3
4701, 1095, 1087, 1144
*ELEMENT, TYPE=C3D3
4702, 979, 1036, 992
*ELEMENT, TYPE=C3D3
4703, 1144, 1087, 1136
*ELEMENT, TYPE=C3D3
4704, 992, 1036, 1047
*ELEMENT, TYPE=C3D3
4705, 979, 992, 937
*ELEMENT, TYPE=C3D3
4706, 1047, 1036, 1095
*ELEMENT, TYPE=C3D3
4707, 937, 992, 947
*ELEMENT, TYPE=C3D3
4708, 1047, 1095, 1109
*ELEMENT, TYPE=C3D3
4709, 947, 992, 1008
*ELEMENT, TYPE=C3D3
4710, 1109, 1095, 1156
*ELEMENT, TYPE=C3D3
4711, 1008, 992, 1047
*ELEMENT, TYPE=C3D3
4712, 1156, 1095, 1144
*ELEMENT, TYPE=C3D3
4713, 1109, 1156, 1172
*ELEMENT, TYPE=C3D3
4714, 1109, 1172, 1128
*ELEMENT, TYPE=C3D3
4715, 1109, 1128, 1066
*ELEMENT, TYPE=C3D3
4716, 1066, 1128, 1081
*ELEMENT, TYPE=C3D3
4717, 1081, 1128, 1141
*ELEMENT, TYPE=C3D3
4718, 1066, 1081, 1023
*ELEMENT, TYPE=C3D3
4719, 1023, 1081, 1037
*ELEMENT, TYPE=C3D3
4720, 1066, 1023, 1008
*ELEMENT, TYPE=C3D3
4721, 1037, 1081, 1097
*ELEMENT, TYPE=C3D3
4722, 1008, 1023, 964
*ELEMENT, TYPE=C3D3
4723, 1097, 1081, 1141
*ELEMENT, TYPE=C3D3
4724, 964, 1023, 978
*ELEMENT, TYPE=C3D3
4725, 1008, 964, 947
*ELEMENT, TYPE=C3D3
4726, 964, 978, 922
*ELEMENT, TYPE=C3D3
4727, 947, 964, 908
*ELEMENT, TYPE=C3D3
4728, 964, 922, 908
*ELEMENT, TYPE=C3D3
4729, 908, 922, 865
*ELEMENT, TYPE=C3D3
4730, 865, 922, 884
*ELEMENT, TYPE=C3D3
4731, 908, 865, 853
*ELEMENT, TYPE=C3D3
4732, 884, 922, 940
*ELEMENT, TYPE=C3D3
4733, 865, 884, 829
*ELEMENT, TYPE=C3D3
4734, 853, 865, 812
*ELEMENT, TYPE=C3D3
4735, 940, 922, 978
*ELEMENT, TYPE=C3D3
4736, 829, 884, 843
*ELEMENT, TYPE=C3D3
4737, 812, 865, 829
*ELEMENT, TYPE=C3D3
4738, 843, 884, 900
*ELEMENT, TYPE=C3D3
4739, 829, 843, 792
*ELEMENT, TYPE=C3D3
4740, 900, 884, 940
*ELEMENT, TYPE=C3D3
4741, 843, 900, 863
*ELEMENT, TYPE=C3D3
4742, 792, 843, 809
*ELEMENT, TYPE=C3D3
4743, 863, 900, 921
*ELEMENT, TYPE=C3D3
4744, 843, 863, 809
*ELEMENT, TYPE=C3D3
4745, 921, 900, 958
*ELEMENT, TYPE=C3D3
4746, 809, 863, 832
*ELEMENT, TYPE=C3D3
4747, 958, 900, 940
*ELEMENT, TYPE=C3D3
4748, 921, 958, 977
*ELEMENT, TYPE=C3D3
4749, 832, 863, 886
*ELEMENT, TYPE=C3D3
4750, 977, 958, 1015
*ELEMENT, TYPE=C3D3
4751, 921, 977, 942
*ELEMENT, TYPE=C3D3
4752, 886, 863, 921
*ELEMENT, TYPE=C3D3
4753, 1015, 958, 996
*ELEMENT, TYPE=C3D3
4754, 942, 977, 1001
*ELEMENT, TYPE=C3D3
4755, 886, 921, 942
*ELEMENT, TYPE=C3D3
4756, 996, 958, 940
*ELEMENT, TYPE=C3D3
4757, 1001, 977, 1038
*ELEMENT, TYPE=C3D3
4758, 996, 940, 978
*ELEMENT, TYPE=C3D3
4759, 1038, 977, 1015
*ELEMENT, TYPE=C3D3
4760, 996, 978, 1037
*ELEMENT, TYPE=C3D3
4761, 1038, 1015, 1077
*ELEMENT, TYPE=C3D3
4762, 1037, 978, 1023
*ELEMENT, TYPE=C3D3
4763, 1077, 1015, 1059
*ELEMENT, TYPE=C3D3
4764, 1059, 1015, 996
*ELEMENT, TYPE=C3D3
4765, 1059, 996, 1037
*ELEMENT, TYPE=C3D3
4766, 1059, 1037, 1097
*ELEMENT, TYPE=C3D3
4767, 1059, 1097, 1119
*ELEMENT, TYPE=C3D3
4768, 2416, 2467, 2448
*ELEMENT, TYPE=C3D3
4769, 1523, 1577, 1574
*ELEMENT, TYPE=C3D3
4770, 1574, 1577, 1631
*ELEMENT, TYPE=C3D3
4771, 1523, 1574, 1516
*ELEMENT, TYPE=C3D3
4772, 1631, 1577, 1650
*ELEMENT, TYPE=C3D3
4773, 1574, 1631, 1627
*ELEMENT, TYPE=C3D3
4774, 1516, 1574, 1572
*ELEMENT, TYPE=C3D3
4775, 1650, 1577, 1585
*ELEMENT, TYPE=C3D3
4776, 1631, 1650, 1688
*ELEMENT, TYPE=C3D3
4777, 1627, 1631, 1696
*ELEMENT, TYPE=C3D3
4778, 1572, 1574, 1627
*ELEMENT, TYPE=C3D3
4779, 1688, 1650, 1720
*ELEMENT, TYPE=C3D3
4780, 1631, 1688, 1696
*ELEMENT, TYPE=C3D3
4781, 1572, 1627, 1624
*ELEMENT, TYPE=C3D3
4782, 1696, 1688, 1748
*ELEMENT, TYPE=C3D3
4783, 1624, 1627, 1677
*ELEMENT, TYPE=C3D3
4784, 1572, 1624, 1571
*ELEMENT, TYPE=C3D3
4785, 1677, 1627, 1696
*ELEMENT, TYPE=C3D3
4786, 1624, 1677, 1676
*ELEMENT, TYPE=C3D3
4787, 1571, 1624, 1626
*ELEMENT, TYPE=C3D3
4788, 1572, 1571, 1513
*ELEMENT, TYPE=C3D3
4789, 1676, 1677, 1734
*ELEMENT, TYPE=C3D3
4790, 1626, 1624, 1676
*ELEMENT, TYPE=C3D3
4791, 1572, 1513, 1516
*ELEMENT, TYPE=C3D3
4792, 1734, 1677, 1729
*ELEMENT, TYPE=C3D3
4793, 1516, 1513, 1459
*ELEMENT, TYPE=C3D3
4794, 1729, 1677, 1696
*ELEMENT, TYPE=C3D3
4795, 1459, 1513, 1458
*ELEMENT, TYPE=C3D3
4796, 1516, 1459, 1462
*ELEMENT, TYPE=C3D3
4797, 1729, 1696, 1774
*ELEMENT, TYPE=C3D3
4798, 1458, 1513, 1515
*ELEMENT, TYPE=C3D3
4799, 1462, 1459, 1399
*ELEMENT, TYPE=C3D3
4800, 1515, 1513, 1571
*ELEMENT, TYPE=C3D3
4801, 1458, 1515, 1460
*ELEMENT, TYPE=C3D3
4802, 1399, 1459, 1396
*ELEMENT, TYPE=C3D3
4803, 1396, 1459, 1458
*ELEMENT, TYPE=C3D3
4804, 1626, 1676, 1678
*ELEMENT, TYPE=C3D3
4805, 1678, 1676, 1727
*ELEMENT, TYPE=C3D3
4806, 1626, 1678, 1630
*ELEMENT, TYPE=C3D3
4807, 1727, 1676, 1734
*ELEMENT, TYPE=C3D3
4808, 1630, 1678, 1683
*ELEMENT, TYPE=C3D3
4809, 1683, 1678, 1732
*ELEMENT, TYPE=C3D3
4810, 1630, 1683, 1634
*ELEMENT, TYPE=C3D3
4811, 1732, 1678, 1727
*ELEMENT, TYPE=C3D3
4812, 1634, 1683, 1686
*ELEMENT, TYPE=C3D3
4813, 1630, 1634, 1576
*ELEMENT, TYPE=C3D3
4814, 1686, 1683, 1735
*ELEMENT, TYPE=C3D3
4815, 1634, 1686, 1636
*ELEMENT, TYPE=C3D3
4816, 1576, 1634, 1581
*ELEMENT, TYPE=C3D3
4817, 1735, 1683, 1732
*ELEMENT, TYPE=C3D3
4818, 1636, 1686, 1692
*ELEMENT, TYPE=C3D3
4819, 1581, 1634, 1636
*ELEMENT, TYPE=C3D3
4820, 1692, 1686, 1741
*ELEMENT, TYPE=C3D3
4821, 1636, 1692, 1644
*ELEMENT, TYPE=C3D3
4822, 1741, 1686, 1735
*ELEMENT, TYPE=C3D3
4823, 1692, 1741, 1744
*ELEMENT, TYPE=C3D3
4824, 1644, 1692, 1698
*ELEMENT, TYPE=C3D3
4825, 1744, 1741, 1791
*ELEMENT, TYPE=C3D3
4826, 1692, 1744, 1698
*ELEMENT, TYPE=C3D3
4827, 1791, 1741, 1786
*ELEMENT, TYPE=C3D3
4828, 1698, 1744, 1754
*ELEMENT, TYPE=C3D3
4829, 1786, 1741, 1735
*ELEMENT, TYPE=C3D3
4830, 1791, 1786, 1837
*ELEMENT, TYPE=C3D3
4831, 1754, 1744, 1799
*ELEMENT, TYPE=C3D3
4832, 1786, 1735, 1782
*ELEMENT, TYPE=C3D3
4833, 1837, 1786, 1838
*ELEMENT, TYPE=C3D3
4834, 1799, 1744, 1791
*ELEMENT, TYPE=C3D3
4835, 1782, 1735, 1732
*ELEMENT, TYPE=C3D3
4836, 1838, 1786, 1782
*ELEMENT, TYPE=C3D3
4837, 1799, 1791, 1843
*ELEMENT, TYPE=C3D3
4838, 1838, 1782, 1830
*ELEMENT, TYPE=C3D3
4839, 1843, 1791, 1837
*ELEMENT, TYPE=C3D3
4840, 1799, 1843, 1850
*ELEMENT, TYPE=C3D3
4841, 1830, 1782, 1784
*ELEMENT, TYPE=C3D3
4842, 1843, 1837, 1889
*ELEMENT, TYPE=C3D3
4843, 1850, 1843, 1894
*ELEMENT, TYPE=C3D3
4844, 1784, 1782, 1732
*ELEMENT, TYPE=C3D3
4845, 1889, 1837, 1884
*ELEMENT, TYPE=C3D3
4846, 1894, 1843, 1889
*ELEMENT, TYPE=C3D3
4847, 1784, 1732, 1727
*ELEMENT, TYPE=C3D3
4848, 1884, 1837, 1838
*ELEMENT, TYPE=C3D3
4849, 1894, 1889, 1937
*ELEMENT, TYPE=C3D3
4850, 1784, 1727, 1776
*ELEMENT, TYPE=C3D3
4851, 1884, 1838, 1917
*ELEMENT, TYPE=C3D3
4852, 1937, 1889, 1947
*ELEMENT, TYPE=C3D3
4853, 1776, 1727, 1734
*ELEMENT, TYPE=C3D3
4854, 1776, 1734, 1802
*ELEMENT, TYPE=C3D3
4855, 1515, 1571, 1573
*ELEMENT, TYPE=C3D3
4856, 1573, 1571, 1626
*ELEMENT, TYPE=C3D3
4857, 1573, 1626, 1630
*ELEMENT, TYPE=C3D3
4858, 1573, 1630, 1576
*ELEMENT, TYPE=C3D3
4859, 1193, 1253, 1243
*ELEMENT, TYPE=C3D3
4860, 1193, 1243, 1186
*ELEMENT, TYPE=C3D3
4861, 1193, 1186, 1134
*ELEMENT, TYPE=C3D3
4862, 681, 652, 698
*ELEMENT, TYPE=C3D3
4863, 698, 652, 667
*ELEMENT, TYPE=C3D3
4864, 681, 698, 731
*ELEMENT, TYPE=C3D3
4865, 667, 652, 621
*ELEMENT, TYPE=C3D3
4866, 698, 667, 719
*ELEMENT, TYPE=C3D3
4867, 731, 698, 748
*ELEMENT, TYPE=C3D3
4868, 621, 652, 603
*ELEMENT, TYPE=C3D3
4869, 719, 667, 689
*ELEMENT, TYPE=C3D3
4870, 698, 719, 748
*ELEMENT, TYPE=C3D3
4871, 621, 603, 575
*ELEMENT, TYPE=C3D3
4872, 719, 689, 740
*ELEMENT, TYPE=C3D3
4873, 748, 719, 771
*ELEMENT, TYPE=C3D3
4874, 740, 689, 707
*ELEMENT, TYPE=C3D3
4875, 719, 740, 771
*ELEMENT, TYPE=C3D3
4876, 707, 689, 660
*ELEMENT, TYPE=C3D3
4877, 771, 740, 791
*ELEMENT, TYPE=C3D3
4878, 660, 689, 640
*ELEMENT, TYPE=C3D3
4879, 707, 660, 686
*ELEMENT, TYPE=C3D3
4880, 791, 740, 763
*ELEMENT, TYPE=C3D3
4881, 640, 689, 667
*ELEMENT, TYPE=C3D3
4882, 686, 660, 636
*ELEMENT, TYPE=C3D3
4883, 763, 740, 707
*ELEMENT, TYPE=C3D3
4884, 636, 660, 612
*ELEMENT, TYPE=C3D3
4885, 686, 636, 657
*ELEMENT, TYPE=C3D3
4886, 763, 707, 736
*ELEMENT, TYPE=C3D3
4887, 612, 660, 640
*ELEMENT, TYPE=C3D3
4888, 657, 636, 611
*ELEMENT, TYPE=C3D3
4889, 736, 707, 686
*ELEMENT, TYPE=C3D3
4890, 612, 640, 593
*ELEMENT, TYPE=C3D3
4891, 611, 636, 588
*ELEMENT, TYPE=C3D3
4892, 593, 640, 621
*ELEMENT, TYPE=C3D3
4893, 612, 593, 568
*ELEMENT, TYPE=C3D3
4894, 588, 636, 612
*ELEMENT, TYPE=C3D3
4895, 621, 640, 667
*ELEMENT, TYPE=C3D3
4896, 568, 593, 547
*ELEMENT, TYPE=C3D3
4897, 588, 612, 568
*ELEMENT, TYPE=C3D3
4898, 547, 593, 575
*ELEMENT, TYPE=C3D3
4899, 588, 568, 542
*ELEMENT, TYPE=C3D3
4900, 575, 593, 621
*ELEMENT, TYPE=C3D3
4901, 542, 568, 521
*ELEMENT, TYPE=C3D3
4902, 588, 542, 567
*ELEMENT, TYPE=C3D3
4903, 521, 568, 547
*ELEMENT, TYPE=C3D3
4904, 567, 542, 519
*ELEMENT, TYPE=C3D3
4905, 521, 547, 502
*ELEMENT, TYPE=C3D3
4906, 519, 542, 499
*ELEMENT, TYPE=C3D3
4907, 502, 547, 531
*ELEMENT, TYPE=C3D3
4908, 521, 502, 479
*ELEMENT, TYPE=C3D3
4909, 499, 542, 521
*ELEMENT, TYPE=C3D3
4910, 531, 547, 575
*ELEMENT, TYPE=C3D3
4911, 479, 502, 463
*ELEMENT, TYPE=C3D3
4912, 463, 502, 488
*ELEMENT, TYPE=C3D3
4913, 479, 463, 438
*ELEMENT, TYPE=C3D3
4914, 488, 502, 531
*ELEMENT, TYPE=C3D3
4915, 438, 463, 424
*ELEMENT, TYPE=C3D3
4916, 488, 531, 514
*ELEMENT, TYPE=C3D3
4917, 424, 463, 448
*ELEMENT, TYPE=C3D3
4918, 488, 514, 470
*ELEMENT, TYPE=C3D3
4919, 448, 463, 488
*ELEMENT, TYPE=C3D3
4920, 470, 514, 497
*ELEMENT, TYPE=C3D3
4921, 488, 470, 448
*ELEMENT, TYPE=C3D3
4922, 470, 497, 457
*ELEMENT, TYPE=C3D3
4923, 448, 470, 431
*ELEMENT, TYPE=C3D3
4924, 457, 497, 487
*ELEMENT, TYPE=C3D3
4925, 431, 470, 457
*ELEMENT, TYPE=C3D3
4926, 457, 487, 447
*ELEMENT, TYPE=C3D3
4927, 431, 457, 418
*ELEMENT, TYPE=C3D3
4928, 457, 447, 418
*ELEMENT, TYPE=C3D3
4929, 418, 447, 410
*ELEMENT, TYPE=C3D3
4930, 418, 410, 382
*ELEMENT, TYPE=C3D3
4931, 382, 410, 372
*ELEMENT, TYPE=C3D3
4932, 418, 382, 394
*ELEMENT, TYPE=C3D3
4933, 382, 372, 346
*ELEMENT, TYPE=C3D3
4934, 394, 382, 358
*ELEMENT, TYPE=C3D3
4935, 346, 372, 337
*ELEMENT, TYPE=C3D3
4936, 358, 382, 346
*ELEMENT, TYPE=C3D3
4937, 337, 372, 362
*ELEMENT, TYPE=C3D3
4938, 358, 346, 323
*ELEMENT, TYPE=C3D3
4939, 337, 362, 331
*ELEMENT, TYPE=C3D3
4940, 323, 346, 313
*ELEMENT, TYPE=C3D3
4941, 331, 362, 357
*ELEMENT, TYPE=C3D3
4942, 313, 346, 337
*ELEMENT, TYPE=C3D3
4943, 323, 313, 290
*ELEMENT, TYPE=C3D3
4944, 313, 337, 305
*ELEMENT, TYPE=C3D3
4945, 290, 313, 279
*ELEMENT, TYPE=C3D3
4946, 305, 337, 331
*ELEMENT, TYPE=C3D3
4947, 313, 305, 279
*ELEMENT, TYPE=C3D3
4948, 305, 331, 299
*ELEMENT, TYPE=C3D3
4949, 279, 305, 274
*ELEMENT, TYPE=C3D3
4950, 299, 331, 324
*ELEMENT, TYPE=C3D3
4951, 305, 299, 274
*ELEMENT, TYPE=C3D3
4952, 324, 331, 357
*ELEMENT, TYPE=C3D3
4953, 274, 299, 269
*ELEMENT, TYPE=C3D3
4954, 324, 357, 354
*ELEMENT, TYPE=C3D3
4955, 269, 299, 293
*ELEMENT, TYPE=C3D3
4956, 324, 354, 322
*ELEMENT, TYPE=C3D3
4957, 293, 299, 324
*ELEMENT, TYPE=C3D3
4958, 322, 354, 351
*ELEMENT, TYPE=C3D3
4959, 324, 322, 293
*ELEMENT, TYPE=C3D3
4960, 351, 354, 384
*ELEMENT, TYPE=C3D3
4961, 293, 322, 291
*ELEMENT, TYPE=C3D3
4962, 351, 384, 364
*ELEMENT, TYPE=C3D3
4963, 291, 322, 329
*ELEMENT, TYPE=C3D3
4964, 293, 291, 267
*ELEMENT, TYPE=C3D3
4965, 267, 291, 265
*ELEMENT, TYPE=C3D3
4966, 293, 267, 269
*ELEMENT, TYPE=C3D3
4967, 269, 267, 243
*ELEMENT, TYPE=C3D3
4968, 243, 267, 239
*ELEMENT, TYPE=C3D3
4969, 269, 243, 245
*ELEMENT, TYPE=C3D3
4970, 239, 267, 265
*ELEMENT, TYPE=C3D3
4971, 243, 239, 214
*ELEMENT, TYPE=C3D3
4972, 245, 243, 217
*ELEMENT, TYPE=C3D3
4973, 214, 239, 206
*ELEMENT, TYPE=C3D3
4974, 243, 214, 217
*ELEMENT, TYPE=C3D3
4975, 217, 214, 192
*ELEMENT, TYPE=C3D3
4976, 192, 214, 190
*ELEMENT, TYPE=C3D3
4977, 217, 192, 198
*ELEMENT, TYPE=C3D3
4978, 190, 214, 206
*ELEMENT, TYPE=C3D3
4979, 192, 190, 168
*ELEMENT, TYPE=C3D3
4980, 198, 192, 173
*ELEMENT, TYPE=C3D3
4981, 168, 179, 156
*ELEMENT, TYPE=C3D3
4982, 192, 168, 173
*ELEMENT, TYPE=C3D3
4983, 173, 168, 150
*ELEMENT, TYPE=C3D3
4984, 150, 168, 148
*ELEMENT, TYPE=C3D3
4985, 173, 150, 154
*ELEMENT, TYPE=C3D3
4986, 148, 168, 156
*ELEMENT, TYPE=C3D3
4987, 150, 148, 129
*ELEMENT, TYPE=C3D3
4988, 154, 150, 135
*ELEMENT, TYPE=C3D3
4989, 129, 148, 133
*ELEMENT, TYPE=C3D3
4990, 150, 129, 135
*ELEMENT, TYPE=C3D3
4991, 135, 129, 115
*ELEMENT, TYPE=C3D3
4992, 115, 129, 109
*ELEMENT, TYPE=C3D3
4993, 135, 115, 118
*ELEMENT, TYPE=C3D3
4994, 109, 129, 133
*ELEMENT, TYPE=C3D3
4995, 115, 109, 96
*ELEMENT, TYPE=C3D3
4996, 118, 115, 99
*ELEMENT, TYPE=C3D3
4997, 96, 109, 94
*ELEMENT, TYPE=C3D3
4998, 115, 96, 99
*ELEMENT, TYPE=C3D3
4999, 99, 96, 82
*ELEMENT, TYPE=C3D3
5000, 82, 96, 79
*ELEMENT, TYPE=C3D3
5001, 99, 82, 86
*ELEMENT, TYPE=C3D3
5002, 79, 96, 94
*ELEMENT, TYPE=C3D3
5003, 82, 79, 66
*ELEMENT, TYPE=C3D3
5004, 86, 82, 70
*ELEMENT, TYPE=C3D3
5005, 66, 79, 58
*ELEMENT, TYPE=C3D3
5006, 82, 66, 70
*ELEMENT, TYPE=C3D3
5007, 70, 66, 56
*ELEMENT, TYPE=C3D3
5008, 56, 66, 53
*ELEMENT, TYPE=C3D3
5009, 70, 56, 60
*ELEMENT, TYPE=C3D3
5010, 53, 66, 58
*ELEMENT, TYPE=C3D3
5011, 56, 53, 43
*ELEMENT, TYPE=C3D3
5012, 60, 56, 47
*ELEMENT, TYPE=C3D3
5013, 43, 53, 45
*ELEMENT, TYPE=C3D3
5014, 56, 43, 47
*ELEMENT, TYPE=C3D3
5015, 47, 43, 36
*ELEMENT, TYPE=C3D3
5016, 36, 43, 32
*ELEMENT, TYPE=C3D3
5017, 47, 36, 40
*ELEMENT, TYPE=C3D3
5018, 32, 43, 34
*ELEMENT, TYPE=C3D3
5019, 36, 32, 26
*ELEMENT, TYPE=C3D3
5020, 40, 36, 27
*ELEMENT, TYPE=C3D3
5021, 26, 32, 24
*ELEMENT, TYPE=C3D3
5022, 36, 26, 27
*ELEMENT, TYPE=C3D3
5023, 27, 26, 19
*ELEMENT, TYPE=C3D3
5024, 19, 26, 18
*ELEMENT, TYPE=C3D3
5025, 27, 19, 23
*ELEMENT, TYPE=C3D3
5026, 18, 26, 24
*ELEMENT, TYPE=C3D3
5027, 19, 18, 12
*ELEMENT, TYPE=C3D3
5028, 23, 19, 15
*ELEMENT, TYPE=C3D3
5029, 12, 18, 10
*ELEMENT, TYPE=C3D3
5030, 19, 12, 15
*ELEMENT, TYPE=C3D3
5031, 15, 12, 9
*ELEMENT, TYPE=C3D3
5032, 9, 12, 7
*ELEMENT, TYPE=C3D3
5033, 15, 9, 13
*ELEMENT, TYPE=C3D3
5034, 7, 12, 10
*ELEMENT, TYPE=C3D3
5035, 9, 7, 4
*ELEMENT, TYPE=C3D3
5036, 13, 9, 8
*ELEMENT, TYPE=C3D3
5037, 4, 7, 2
*ELEMENT, TYPE=C3D3
5038, 9, 4, 8
*ELEMENT, TYPE=C3D3
5039, 8, 4, 6
*ELEMENT, TYPE=C3D3
5040, 567, 519, 543
*ELEMENT, TYPE=C3D3
5041, 543, 519, 501
*ELEMENT, TYPE=C3D3
5042, 567, 543, 592
*ELEMENT, TYPE=C3D3
5043, 501, 519, 478
*ELEMENT, TYPE=C3D3
5044, 592, 543, 573
*ELEMENT, TYPE=C3D3
5045, 567, 592, 611
*ELEMENT, TYPE=C3D3
5046, 478, 519, 499
*ELEMENT, TYPE=C3D3
5047, 573, 543, 529
*ELEMENT, TYPE=C3D3
5048, 611, 592, 638
*ELEMENT, TYPE=C3D3
5049, 529, 543, 501
*ELEMENT, TYPE=C3D3
5050, 573, 529, 554
*ELEMENT, TYPE=C3D3
5051, 638, 592, 618
*ELEMENT, TYPE=C3D3
5052, 554, 529, 507
*ELEMENT, TYPE=C3D3
5053, 573, 554, 598
*ELEMENT, TYPE=C3D3
5054, 618, 592, 573
*ELEMENT, TYPE=C3D3
5055, 507, 529, 486
*ELEMENT, TYPE=C3D3
5056, 598, 554, 580
*ELEMENT, TYPE=C3D3
5057, 486, 529, 501
*ELEMENT, TYPE=C3D3
5058, 507, 486, 466
*ELEMENT, TYPE=C3D3
5059, 580, 554, 536
*ELEMENT, TYPE=C3D3
5060, 466, 486, 445
*ELEMENT, TYPE=C3D3
5061, 507, 466, 494
*ELEMENT, TYPE=C3D3
5062, 536, 554, 507
*ELEMENT, TYPE=C3D3
5063, 445, 486, 461
*ELEMENT, TYPE=C3D3
5064, 494, 466, 453
*ELEMENT, TYPE=C3D3
5065, 536, 507, 494
*ELEMENT, TYPE=C3D3
5066, 461, 486, 501
*ELEMENT, TYPE=C3D3
5067, 453, 466, 428
*ELEMENT, TYPE=C3D3
5068, 461, 501, 478
*ELEMENT, TYPE=C3D3
5069, 428, 466, 445
*ELEMENT, TYPE=C3D3
5070, 461, 478, 437
*ELEMENT, TYPE=C3D3
5071, 428, 445, 404
*ELEMENT, TYPE=C3D3
5072, 437, 478, 459
*ELEMENT, TYPE=C3D3
5073, 461, 437, 421
*ELEMENT, TYPE=C3D3
5074, 404, 445, 421
*ELEMENT, TYPE=C3D3
5075, 459, 478, 499
*ELEMENT, TYPE=C3D3
5076, 421, 437, 397
*ELEMENT, TYPE=C3D3
5077, 421, 445, 461
*ELEMENT, TYPE=C3D3
5078, 397, 437, 420
*ELEMENT, TYPE=C3D3
5079, 421, 397, 383
*ELEMENT, TYPE=C3D3
5080, 420, 437, 459
*ELEMENT, TYPE=C3D3
5081, 383, 397, 361
*ELEMENT, TYPE=C3D3
5082, 420, 459, 438
*ELEMENT, TYPE=C3D3
5083, 361, 397, 381
*ELEMENT, TYPE=C3D3
5084, 438, 459, 479
*ELEMENT, TYPE=C3D3
5085, 420, 438, 398
*ELEMENT, TYPE=C3D3
5086, 381, 397, 420
*ELEMENT, TYPE=C3D3
5087, 479, 459, 499
*ELEMENT, TYPE=C3D3
5088, 420, 398, 381
*ELEMENT, TYPE=C3D3
5089, 479, 499, 521
*ELEMENT, TYPE=C3D3
5090, 381, 398, 363
*ELEMENT, TYPE=C3D3
5091, 363, 398, 385
*ELEMENT, TYPE=C3D3
5092, 381, 363, 344
*ELEMENT, TYPE=C3D3
5093, 385, 398, 424
*ELEMENT, TYPE=C3D3
5094, 344, 363, 328
*ELEMENT, TYPE=C3D3
5095, 424, 398, 438
*ELEMENT, TYPE=C3D3
5096, 328, 363, 349
*ELEMENT, TYPE=C3D3
5097, 349, 363, 385
*ELEMENT, TYPE=C3D3
5098, 328, 349, 314
*ELEMENT, TYPE=C3D3
5099, 349, 385, 370
*ELEMENT, TYPE=C3D3
5100, 314, 349, 336
*ELEMENT, TYPE=C3D3
5101, 370, 385, 408
*ELEMENT, TYPE=C3D3
5102, 336, 349, 370
*ELEMENT, TYPE=C3D3
5103, 314, 336, 303
*ELEMENT, TYPE=C3D3
5104, 408, 385, 424
*ELEMENT, TYPE=C3D3
5105, 303, 336, 323
*ELEMENT, TYPE=C3D3
5106, 314, 303, 280
*ELEMENT, TYPE=C3D3
5107, 323, 336, 358
*ELEMENT, TYPE=C3D3
5108, 303, 323, 290
*ELEMENT, TYPE=C3D3
5109, 280, 303, 272
*ELEMENT, TYPE=C3D3
5110, 358, 336, 370
*ELEMENT, TYPE=C3D3
5111, 303, 290, 272
*ELEMENT, TYPE=C3D3
5112, 272, 290, 260
*ELEMENT, TYPE=C3D3
5113, 260, 290, 279
*ELEMENT, TYPE=C3D3
5114, 272, 260, 241
*ELEMENT, TYPE=C3D3
5115, 260, 279, 252
*ELEMENT, TYPE=C3D3
5116, 241, 260, 229
*ELEMENT, TYPE=C3D3
5117, 272, 241, 250
*ELEMENT, TYPE=C3D3
5118, 252, 279, 274
*ELEMENT, TYPE=C3D3
5119, 229, 260, 252
*ELEMENT, TYPE=C3D3
5120, 250, 241, 222
*ELEMENT, TYPE=C3D3
5121, 252, 274, 245
*ELEMENT, TYPE=C3D3
5122, 222, 241, 213
*ELEMENT, TYPE=C3D3
5123, 250, 222, 233
*ELEMENT, TYPE=C3D3
5124, 245, 274, 269
*ELEMENT, TYPE=C3D3
5125, 213, 241, 229
*ELEMENT, TYPE=C3D3
5126, 233, 222, 203
*ELEMENT, TYPE=C3D3
5127, 213, 229, 201
*ELEMENT, TYPE=C3D3
5128, 203, 222, 196
*ELEMENT, TYPE=C3D3
5129, 201, 229, 224
*ELEMENT, TYPE=C3D3
5130, 196, 222, 213
*ELEMENT, TYPE=C3D3
5131, 203, 196, 178
*ELEMENT, TYPE=C3D3
5132, 224, 229, 252
*ELEMENT, TYPE=C3D3
5133, 196, 213, 187
*ELEMENT, TYPE=C3D3
5134, 178, 196, 170
*ELEMENT, TYPE=C3D3
5135, 224, 252, 245
*ELEMENT, TYPE=C3D3
5136, 187, 213, 201
*ELEMENT, TYPE=C3D3
5137, 170, 196, 187
*ELEMENT, TYPE=C3D3
5138, 187, 201, 176
*ELEMENT, TYPE=C3D3
5139, 176, 201, 198
*ELEMENT, TYPE=C3D3
5140, 187, 176, 160
*ELEMENT, TYPE=C3D3
5141, 198, 201, 224
*ELEMENT, TYPE=C3D3
5142, 160, 176, 154
*ELEMENT, TYPE=C3D3
5143, 187, 160, 170
*ELEMENT, TYPE=C3D3
5144, 154, 176, 173
*ELEMENT, TYPE=C3D3
5145, 160, 154, 138
*ELEMENT, TYPE=C3D3
5146, 170, 160, 146
*ELEMENT, TYPE=C3D3
5147, 138, 154, 135
*ELEMENT, TYPE=C3D3
5148, 146, 160, 138
*ELEMENT, TYPE=C3D3
5149, 170, 146, 155
*ELEMENT, TYPE=C3D3
5150, 138, 135, 118
*ELEMENT, TYPE=C3D3
5151, 146, 138, 125
*ELEMENT, TYPE=C3D3
5152, 155, 146, 132
*ELEMENT, TYPE=C3D3
5153, 138, 118, 125
*ELEMENT, TYPE=C3D3
5154, 132, 146, 125
*ELEMENT, TYPE=C3D3
5155, 125, 118, 103
*ELEMENT, TYPE=C3D3
5156, 132, 125, 112
*ELEMENT, TYPE=C3D3
5157, 103, 118, 99
*ELEMENT, TYPE=C3D3
5158, 112, 125, 103
*ELEMENT, TYPE=C3D3
5159, 132, 112, 119
*ELEMENT, TYPE=C3D3
5160, 112, 103, 92
*ELEMENT, TYPE=C3D3
5161, 119, 112, 100
*ELEMENT, TYPE=C3D3
5162, 92, 103, 86
*ELEMENT, TYPE=C3D3
5163, 112, 92, 100
*ELEMENT, TYPE=C3D3
5164, 86, 103, 99
*ELEMENT, TYPE=C3D3
5165, 100, 92, 83
*ELEMENT, TYPE=C3D3
5166, 83, 92, 74
*ELEMENT, TYPE=C3D3
5167, 100, 83, 90
*ELEMENT, TYPE=C3D3
5168, 74, 92, 86
*ELEMENT, TYPE=C3D3
5169, 83, 74, 67
*ELEMENT, TYPE=C3D3
5170, 90, 83, 73
*ELEMENT, TYPE=C3D3
5171, 67, 74, 60
*ELEMENT, TYPE=C3D3
5172, 83, 67, 73
*ELEMENT, TYPE=C3D3
5173, 60, 74, 70
*ELEMENT, TYPE=C3D3
5174, 73, 67, 57
*ELEMENT, TYPE=C3D3
5175, 70, 74, 86
*ELEMENT, TYPE=C3D3
5176, 57, 67, 52
*ELEMENT, TYPE=C3D3
5177, 73, 57, 68
*ELEMENT, TYPE=C3D3
5178, 52, 67, 60
*ELEMENT, TYPE=C3D3
5179, 57, 52, 44
*ELEMENT, TYPE=C3D3
5180, 68, 57, 54
*ELEMENT, TYPE=C3D3
5181, 52, 60, 47
*ELEMENT, TYPE=C3D3
5182, 44, 52, 40
*ELEMENT, TYPE=C3D3
5183, 54, 57, 44
*ELEMENT, TYPE=C3D3
5184, 40, 52, 47
*ELEMENT, TYPE=C3D3
5185, 44, 40, 33
*ELEMENT, TYPE=C3D3
5186, 33, 40, 27
*ELEMENT, TYPE=C3D3
5187, 44, 33, 41
*ELEMENT, TYPE=C3D3
5188, 33, 27, 23
*ELEMENT, TYPE=C3D3
5189, 41, 33, 30
*ELEMENT, TYPE=C3D3
5190, 33, 23, 30
*ELEMENT, TYPE=C3D3
5191, 30, 23, 21
*ELEMENT, TYPE=C3D3
5192, 21, 23, 15
*ELEMENT, TYPE=C3D3
5193, 30, 21, 28
*ELEMENT, TYPE=C3D3
5194, 21, 15, 13
*ELEMENT, TYPE=C3D3
5195, 28, 21, 20
*ELEMENT, TYPE=C3D3
5196, 21, 13, 20
*ELEMENT, TYPE=C3D3
5197, 20, 13, 14
*ELEMENT, TYPE=C3D3
5198, 14, 13, 8
*ELEMENT, TYPE=C3D3
5199, 20, 14, 22
*ELEMENT, TYPE=C3D3
5200, 22, 14, 17
*ELEMENT, TYPE=C3D3
5201, 20, 22, 29
*ELEMENT, TYPE=C3D3
5202, 29, 22, 31
*ELEMENT, TYPE=C3D3
5203, 20, 29, 28
*ELEMENT, TYPE=C3D3
5204, 31, 22, 25
*ELEMENT, TYPE=C3D3
5205, 28, 29, 37
*ELEMENT, TYPE=C3D3
5206, 37, 29, 39
*ELEMENT, TYPE=C3D3
5207, 39, 29, 31
*ELEMENT, TYPE=C3D3
5208, 37, 39, 49
*ELEMENT, TYPE=C3D3
5209, 39, 31, 42
*ELEMENT, TYPE=C3D3
5210, 49, 39, 51
*ELEMENT, TYPE=C3D3
5211, 42, 31, 35
*ELEMENT, TYPE=C3D3
5212, 51, 39, 42
*ELEMENT, TYPE=C3D3
5213, 49, 51, 63
*ELEMENT, TYPE=C3D3
5214, 51, 42, 55
*ELEMENT, TYPE=C3D3
5215, 63, 51, 65
*ELEMENT, TYPE=C3D3
5216, 55, 42, 46
*ELEMENT, TYPE=C3D3
5217, 51, 55, 65
*ELEMENT, TYPE=C3D3
5218, 65, 55, 69
*ELEMENT, TYPE=C3D3
5219, 69, 55, 59
*ELEMENT, TYPE=C3D3
5220, 65, 69, 81
*ELEMENT, TYPE=C3D3
5221, 81, 69, 85
*ELEMENT, TYPE=C3D3
5222, 65, 81, 78
*ELEMENT, TYPE=C3D3
5223, 85, 69, 76
*ELEMENT, TYPE=C3D3
5224, 81, 85, 98
*ELEMENT, TYPE=C3D3
5225, 78, 81, 93
*ELEMENT, TYPE=C3D3
5226, 98, 85, 102
*ELEMENT, TYPE=C3D3
5227, 81, 98, 93
*ELEMENT, TYPE=C3D3
5228, 102, 85, 95
*ELEMENT, TYPE=C3D3
5229, 93, 98, 111
*ELEMENT, TYPE=C3D3
5230, 111, 98, 117
*ELEMENT, TYPE=C3D3
5231, 93, 111, 107
*ELEMENT, TYPE=C3D3
5232, 117, 98, 102
*ELEMENT, TYPE=C3D3
5233, 111, 117, 130
*ELEMENT, TYPE=C3D3
5234, 107, 111, 127
*ELEMENT, TYPE=C3D3
5235, 117, 102, 124
*ELEMENT, TYPE=C3D3
5236, 130, 117, 137
*ELEMENT, TYPE=C3D3
5237, 127, 111, 130
*ELEMENT, TYPE=C3D3
5238, 124, 102, 114
*ELEMENT, TYPE=C3D3
5239, 137, 117, 124
*ELEMENT, TYPE=C3D3
5240, 137, 124, 145
*ELEMENT, TYPE=C3D3
5241, 145, 124, 134
*ELEMENT, TYPE=C3D3
5242, 137, 145, 159
*ELEMENT, TYPE=C3D3
5243, 159, 145, 171
*ELEMENT, TYPE=C3D3
5244, 137, 159, 152
*ELEMENT, TYPE=C3D3
5245, 171, 145, 157
*ELEMENT, TYPE=C3D3
5246, 152, 159, 175
*ELEMENT, TYPE=C3D3
5247, 137, 152, 130
*ELEMENT, TYPE=C3D3
5248, 175, 159, 185
*ELEMENT, TYPE=C3D3
5249, 152, 175, 172
*ELEMENT, TYPE=C3D3
5250, 130, 152, 149
*ELEMENT, TYPE=C3D3
5251, 185, 159, 171
*ELEMENT, TYPE=C3D3
5252, 172, 175, 195
*ELEMENT, TYPE=C3D3
5253, 149, 152, 172
*ELEMENT, TYPE=C3D3
5254, 195, 175, 200
*ELEMENT, TYPE=C3D3
5255, 172, 195, 189
*ELEMENT, TYPE=C3D3
5256, 200, 175, 185
*ELEMENT, TYPE=C3D3
5257, 195, 200, 221
*ELEMENT, TYPE=C3D3
5258, 189, 195, 216
*ELEMENT, TYPE=C3D3
5259, 200, 185, 212
*ELEMENT, TYPE=C3D3
5260, 221, 200, 226
*ELEMENT, TYPE=C3D3
5261, 216, 195, 221
*ELEMENT, TYPE=C3D3
5262, 212, 185, 197
*ELEMENT, TYPE=C3D3
5263, 226, 200, 212
*ELEMENT, TYPE=C3D3
5264, 216, 221, 244
*ELEMENT, TYPE=C3D3
5265, 197, 185, 171
*ELEMENT, TYPE=C3D3
5266, 244, 221, 248
*ELEMENT, TYPE=C3D3
5267, 216, 244, 237
*ELEMENT, TYPE=C3D3
5268, 248, 221, 226
*ELEMENT, TYPE=C3D3
5269, 244, 248, 273
*ELEMENT, TYPE=C3D3
5270, 237, 244, 264
*ELEMENT, TYPE=C3D3
5271, 248, 226, 257
*ELEMENT, TYPE=C3D3
5272, 273, 248, 277
*ELEMENT, TYPE=C3D3
5273, 264, 244, 273
*ELEMENT, TYPE=C3D3
5274, 257, 226, 240
*ELEMENT, TYPE=C3D3
5275, 277, 248, 257
*ELEMENT, TYPE=C3D3
5276, 264, 273, 294
*ELEMENT, TYPE=C3D3
5277, 240, 226, 212
*ELEMENT, TYPE=C3D3
5278, 294, 273, 304
*ELEMENT, TYPE=C3D3
5279, 264, 294, 288
*ELEMENT, TYPE=C3D3
5280, 304, 273, 277
*ELEMENT, TYPE=C3D3
5281, 294, 304, 326
*ELEMENT, TYPE=C3D3
5282, 288, 294, 319
*ELEMENT, TYPE=C3D3
5283, 304, 277, 308
*ELEMENT, TYPE=C3D3
5284, 326, 304, 334
*ELEMENT, TYPE=C3D3
5285, 319, 294, 326
*ELEMENT, TYPE=C3D3
5286, 308, 277, 289
*ELEMENT, TYPE=C3D3
5287, 334, 304, 308
*ELEMENT, TYPE=C3D3
5288, 319, 326, 353
*ELEMENT, TYPE=C3D3
5289, 289, 277, 257
*ELEMENT, TYPE=C3D3
5290, 353, 326, 360
*ELEMENT, TYPE=C3D3
5291, 319, 353, 347
*ELEMENT, TYPE=C3D3
5292, 360, 326, 334
*ELEMENT, TYPE=C3D3
5293, 353, 360, 389
*ELEMENT, TYPE=C3D3
5294, 347, 353, 380
*ELEMENT, TYPE=C3D3
5295, 360, 334, 368
*ELEMENT, TYPE=C3D3
5296, 389, 360, 395
*ELEMENT, TYPE=C3D3
5297, 380, 353, 389
*ELEMENT, TYPE=C3D3
5298, 368, 334, 343
*ELEMENT, TYPE=C3D3
5299, 395, 360, 368
*ELEMENT, TYPE=C3D3
5300, 380, 389, 415
*ELEMENT, TYPE=C3D3
5301, 343, 334, 308
*ELEMENT, TYPE=C3D3
5302, 415, 389, 425
*ELEMENT, TYPE=C3D3
5303, 380, 415, 412
*ELEMENT, TYPE=C3D3
5304, 425, 389, 395
*ELEMENT, TYPE=C3D3
5305, 415, 425, 452
*ELEMENT, TYPE=C3D3
5306, 412, 415, 449
*ELEMENT, TYPE=C3D3
5307, 425, 395, 432
*ELEMENT, TYPE=C3D3
5308, 452, 425, 462
*ELEMENT, TYPE=C3D3
5309, 449, 415, 452
*ELEMENT, TYPE=C3D3
5310, 432, 395, 405
*ELEMENT, TYPE=C3D3
5311, 462, 425, 432
*ELEMENT, TYPE=C3D3
5312, 449, 452, 485
*ELEMENT, TYPE=C3D3
5313, 405, 395, 368
*ELEMENT, TYPE=C3D3
5314, 485, 452, 493
*ELEMENT, TYPE=C3D3
5315, 449, 485, 477
*ELEMENT, TYPE=C3D3
5316, 493, 452, 462
*ELEMENT, TYPE=C3D3
5317, 485, 493, 523
*ELEMENT, TYPE=C3D3
5318, 477, 485, 518
*ELEMENT, TYPE=C3D3
5319, 493, 462, 500
*ELEMENT, TYPE=C3D3
5320, 523, 493, 535
*ELEMENT, TYPE=C3D3
5321, 518, 485, 523
*ELEMENT, TYPE=C3D3
5322, 500, 462, 469
*ELEMENT, TYPE=C3D3
5323, 535, 493, 500
*ELEMENT, TYPE=C3D3
5324, 518, 523, 560
*ELEMENT, TYPE=C3D3
5325, 469, 462, 432
*ELEMENT, TYPE=C3D3
5326, 560, 523, 564
*ELEMENT, TYPE=C3D3
5327, 518, 560, 553
*ELEMENT, TYPE=C3D3
5328, 564, 523, 535
*ELEMENT, TYPE=C3D3
5329, 560, 564, 601
*ELEMENT, TYPE=C3D3
5330, 553, 560, 596
*ELEMENT, TYPE=C3D3
5331, 564, 535, 578
*ELEMENT, TYPE=C3D3
5332, 601, 564, 609
*ELEMENT, TYPE=C3D3
5333, 596, 560, 601
*ELEMENT, TYPE=C3D3
5334, 578, 535, 541
*ELEMENT, TYPE=C3D3
5335, 609, 564, 578
*ELEMENT, TYPE=C3D3
5336, 596, 601, 639
*ELEMENT, TYPE=C3D3
5337, 541, 535, 500
*ELEMENT, TYPE=C3D3
5338, 639, 601, 648
*ELEMENT, TYPE=C3D3
5339, 596, 639, 634
*ELEMENT, TYPE=C3D3
5340, 648, 601, 609
*ELEMENT, TYPE=C3D3
5341, 639, 648, 685
*ELEMENT, TYPE=C3D3
5342, 634, 639, 678
*ELEMENT, TYPE=C3D3
5343, 648, 609, 655
*ELEMENT, TYPE=C3D3
5344, 685, 648, 694
*ELEMENT, TYPE=C3D3
5345, 678, 639, 685
*ELEMENT, TYPE=C3D3
5346, 655, 609, 620
*ELEMENT, TYPE=C3D3
5347, 694, 648, 655
*ELEMENT, TYPE=C3D3
5348, 620, 609, 578
*ELEMENT, TYPE=C3D3
5349, 655, 620, 666
*ELEMENT, TYPE=C3D3
5350, 620, 578, 585
*ELEMENT, TYPE=C3D3
5351, 666, 620, 632
*ELEMENT, TYPE=C3D3
5352, 585, 578, 541
*ELEMENT, TYPE=C3D3
5353, 620, 585, 632
*ELEMENT, TYPE=C3D3
5354, 632, 585, 599
*ELEMENT, TYPE=C3D3
5355, 599, 585, 555
*ELEMENT, TYPE=C3D3
5356, 632, 599, 646
*ELEMENT, TYPE=C3D3
5357, 555, 585, 541
*ELEMENT, TYPE=C3D3
5358, 599, 555, 569
*ELEMENT, TYPE=C3D3
5359, 646, 599, 613
*ELEMENT, TYPE=C3D3
5360, 555, 541, 511
*ELEMENT, TYPE=C3D3
5361, 569, 555, 524
*ELEMENT, TYPE=C3D3
5362, 613, 599, 569
*ELEMENT, TYPE=C3D3
5363, 511, 541, 500
*ELEMENT, TYPE=C3D3
5364, 524, 555, 511
*ELEMENT, TYPE=C3D3
5365, 511, 500, 469
*ELEMENT, TYPE=C3D3
5366, 524, 511, 483
*ELEMENT, TYPE=C3D3
5367, 511, 469, 483
*ELEMENT, TYPE=C3D3
5368, 524, 483, 495
*ELEMENT, TYPE=C3D3
5369, 483, 469, 444
*ELEMENT, TYPE=C3D3
5370, 495, 483, 456
*ELEMENT, TYPE=C3D3
5371, 524, 495, 538
*ELEMENT, TYPE=C3D3
5372, 444, 469, 432
*ELEMENT, TYPE=C3D3
5373, 456, 483, 444
*ELEMENT, TYPE=C3D3
5374, 538, 495, 512
*ELEMENT, TYPE=C3D3
5375, 444, 432, 405
*ELEMENT, TYPE=C3D3
5376, 512, 495, 468
*ELEMENT, TYPE=C3D3
5377, 538, 512, 556
*ELEMENT, TYPE=C3D3
5378, 468, 495, 456
*ELEMENT, TYPE=C3D3
5379, 512, 468, 489
*ELEMENT, TYPE=C3D3
5380, 556, 512, 532
*ELEMENT, TYPE=C3D3
5381, 468, 456, 430
*ELEMENT, TYPE=C3D3
5382, 489, 468, 450
*ELEMENT, TYPE=C3D3
5383, 532, 512, 489
*ELEMENT, TYPE=C3D3
5384, 430, 456, 417
*ELEMENT, TYPE=C3D3
5385, 450, 468, 430
*ELEMENT, TYPE=C3D3
5386, 417, 456, 444
*ELEMENT, TYPE=C3D3
5387, 430, 417, 392
*ELEMENT, TYPE=C3D3
5388, 417, 444, 405
*ELEMENT, TYPE=C3D3
5389, 392, 417, 379
*ELEMENT, TYPE=C3D3
5390, 417, 405, 379
*ELEMENT, TYPE=C3D3
5391, 379, 405, 368
*ELEMENT, TYPE=C3D3
5392, 379, 368, 343
*ELEMENT, TYPE=C3D3
5393, 379, 343, 356
*ELEMENT, TYPE=C3D3
5394, 356, 343, 321
*ELEMENT, TYPE=C3D3
5395, 379, 356, 392
*ELEMENT, TYPE=C3D3
5396, 321, 343, 308
*ELEMENT, TYPE=C3D3
5397, 392, 356, 369
*ELEMENT, TYPE=C3D3
5398, 321, 308, 289
*ELEMENT, TYPE=C3D3
5399, 369, 356, 335
*ELEMENT, TYPE=C3D3
5400, 335, 356, 321
*ELEMENT, TYPE=C3D3
5401, 369, 335, 350
*ELEMENT, TYPE=C3D3
5402, 350, 335, 317
*ELEMENT, TYPE=C3D3
5403, 369, 350, 387
*ELEMENT, TYPE=C3D3
5404, 317, 335, 302
*ELEMENT, TYPE=C3D3
5405, 387, 350, 365
*ELEMENT, TYPE=C3D3
5406, 302, 335, 321
*ELEMENT, TYPE=C3D3
5407, 317, 302, 281
*ELEMENT, TYPE=C3D3
5408, 302, 321, 289
*ELEMENT, TYPE=C3D3
5409, 281, 302, 270
*ELEMENT, TYPE=C3D3
5410, 302, 289, 270
*ELEMENT, TYPE=C3D3
5411, 270, 289, 257
*ELEMENT, TYPE=C3D3
5412, 270, 257, 240
*ELEMENT, TYPE=C3D3
5413, 270, 240, 251
*ELEMENT, TYPE=C3D3
5414, 251, 240, 223
*ELEMENT, TYPE=C3D3
5415, 270, 251, 281
*ELEMENT, TYPE=C3D3
5416, 223, 240, 212
*ELEMENT, TYPE=C3D3
5417, 281, 251, 266
*ELEMENT, TYPE=C3D3
5418, 223, 212, 197
*ELEMENT, TYPE=C3D3
5419, 223, 197, 207
*ELEMENT, TYPE=C3D3
5420, 453, 428, 414
*ELEMENT, TYPE=C3D3
5421, 414, 428, 390
*ELEMENT, TYPE=C3D3
5422, 453, 414, 440
*ELEMENT, TYPE=C3D3
5423, 390, 428, 404
*ELEMENT, TYPE=C3D3
5424, 440, 414, 401
*ELEMENT, TYPE=C3D3
5425, 453, 440, 480
*ELEMENT, TYPE=C3D3
5426, 401, 414, 377
*ELEMENT, TYPE=C3D3
5427, 440, 401, 429
*ELEMENT, TYPE=C3D3
5428, 480, 440, 467
*ELEMENT, TYPE=C3D3
5429, 377, 414, 390
*ELEMENT, TYPE=C3D3
5430, 429, 401, 393
*ELEMENT, TYPE=C3D3
5431, 467, 440, 429
*ELEMENT, TYPE=C3D3
5432, 393, 401, 366
*ELEMENT, TYPE=C3D3
5433, 429, 393, 423
*ELEMENT, TYPE=C3D3
5434, 366, 401, 377
*ELEMENT, TYPE=C3D3
5435, 393, 366, 359
*ELEMENT, TYPE=C3D3
5436, 423, 393, 386
*ELEMENT, TYPE=C3D3
5437, 359, 366, 333
*ELEMENT, TYPE=C3D3
5438, 393, 359, 386
*ELEMENT, TYPE=C3D3
5439, 333, 366, 341
*ELEMENT, TYPE=C3D3
5440, 386, 359, 352
*ELEMENT, TYPE=C3D3
5441, 341, 366, 377
*ELEMENT, TYPE=C3D3
5442, 333, 341, 306
*ELEMENT, TYPE=C3D3
5443, 352, 359, 325
*ELEMENT, TYPE=C3D3
5444, 306, 341, 320
*ELEMENT, TYPE=C3D3
5445, 333, 306, 301
*ELEMENT, TYPE=C3D3
5446, 325, 359, 333
*ELEMENT, TYPE=C3D3
5447, 320, 341, 355
*ELEMENT, TYPE=C3D3
5448, 301, 306, 275
*ELEMENT, TYPE=C3D3
5449, 325, 333, 301
*ELEMENT, TYPE=C3D3
5450, 355, 341, 377
*ELEMENT, TYPE=C3D3
5451, 275, 306, 286
*ELEMENT, TYPE=C3D3
5452, 355, 377, 390
*ELEMENT, TYPE=C3D3
5453, 286, 306, 320
*ELEMENT, TYPE=C3D3
5454, 355, 390, 367
*ELEMENT, TYPE=C3D3
5455, 286, 320, 300
*ELEMENT, TYPE=C3D3
5456, 367, 390, 404
*ELEMENT, TYPE=C3D3
5457, 300, 320, 332
*ELEMENT, TYPE=C3D3
5458, 367, 404, 383
*ELEMENT, TYPE=C3D3
5459, 332, 320, 355
*ELEMENT, TYPE=C3D3
5460, 383, 404, 421
*ELEMENT, TYPE=C3D3
5461, 367, 383, 348
*ELEMENT, TYPE=C3D3
5462, 348, 383, 361
*ELEMENT, TYPE=C3D3
5463, 367, 348, 332
*ELEMENT, TYPE=C3D3
5464, 348, 361, 327
*ELEMENT, TYPE=C3D3
5465, 332, 348, 312
*ELEMENT, TYPE=C3D3
5466, 367, 332, 355
*ELEMENT, TYPE=C3D3
5467, 327, 361, 344
*ELEMENT, TYPE=C3D3
5468, 312, 348, 327
*ELEMENT, TYPE=C3D3
5469, 344, 361, 381
*ELEMENT, TYPE=C3D3
5470, 312, 327, 295
*ELEMENT, TYPE=C3D3
5471, 295, 327, 307
*ELEMENT, TYPE=C3D3
5472, 312, 295, 278
*ELEMENT, TYPE=C3D3
5473, 307, 327, 344
*ELEMENT, TYPE=C3D3
5474, 295, 307, 276
*ELEMENT, TYPE=C3D3
5475, 278, 295, 261
*ELEMENT, TYPE=C3D3
5476, 276, 307, 296
*ELEMENT, TYPE=C3D3
5477, 295, 276, 261
*ELEMENT, TYPE=C3D3
5478, 296, 307, 328
*ELEMENT, TYPE=C3D3
5479, 261, 276, 246
*ELEMENT, TYPE=C3D3
5480, 328, 307, 344
*ELEMENT, TYPE=C3D3
5481, 296, 328, 314
*ELEMENT, TYPE=C3D3
5482, 246, 276, 263
*ELEMENT, TYPE=C3D3
5483, 263, 276, 296
*ELEMENT, TYPE=C3D3
5484, 246, 263, 233
*ELEMENT, TYPE=C3D3
5485, 263, 296, 280
*ELEMENT, TYPE=C3D3
5486, 233, 263, 250
*ELEMENT, TYPE=C3D3
5487, 280, 296, 314
*ELEMENT, TYPE=C3D3
5488, 263, 280, 250
*ELEMENT, TYPE=C3D3
5489, 250, 280, 272
*ELEMENT, TYPE=C3D3
5490, 246, 233, 218
*ELEMENT, TYPE=C3D3
5491, 218, 233, 203
*ELEMENT, TYPE=C3D3
5492, 246, 218, 232
*ELEMENT, TYPE=C3D3
5493, 218, 203, 191
*ELEMENT, TYPE=C3D3
5494, 232, 218, 202
*ELEMENT, TYPE=C3D3
5495, 246, 232, 261
*ELEMENT, TYPE=C3D3
5496, 191, 203, 178
*ELEMENT, TYPE=C3D3
5497, 218, 191, 202
*ELEMENT, TYPE=C3D3
5498, 261, 232, 249
*ELEMENT, TYPE=C3D3
5499, 191, 178, 166
*ELEMENT, TYPE=C3D3
5500, 202, 191, 177
*ELEMENT, TYPE=C3D3
5501, 249, 232, 220
*ELEMENT, TYPE=C3D3
5502, 166, 178, 155
*ELEMENT, TYPE=C3D3
5503, 202, 177, 193
*ELEMENT, TYPE=C3D3
5504, 220, 232, 202
*ELEMENT, TYPE=C3D3
5505, 155, 178, 170
*ELEMENT, TYPE=C3D3
5506, 193, 177, 167
*ELEMENT, TYPE=C3D3
5507, 220, 202, 193
*ELEMENT, TYPE=C3D3
5508, 167, 177, 153
*ELEMENT, TYPE=C3D3
5509, 220, 193, 210
*ELEMENT, TYPE=C3D3
5510, 153, 177, 166
*ELEMENT, TYPE=C3D3
5511, 167, 153, 144
*ELEMENT, TYPE=C3D3
5512, 210, 193, 183
*ELEMENT, TYPE=C3D3
5513, 166, 177, 191
*ELEMENT, TYPE=C3D3
5514, 144, 153, 131
*ELEMENT, TYPE=C3D3
5515, 183, 193, 167
*ELEMENT, TYPE=C3D3
5516, 131, 153, 141
*ELEMENT, TYPE=C3D3
5517, 183, 167, 158
*ELEMENT, TYPE=C3D3
5518, 141, 153, 166
*ELEMENT, TYPE=C3D3
5519, 131, 141, 119
*ELEMENT, TYPE=C3D3
5520, 158, 167, 144
*ELEMENT, TYPE=C3D3
5521, 141, 166, 155
*ELEMENT, TYPE=C3D3
5522, 119, 141, 132
*ELEMENT, TYPE=C3D3
5523, 158, 144, 136
*ELEMENT, TYPE=C3D3
5524, 141, 155, 132
*ELEMENT, TYPE=C3D3
5525, 136, 144, 121
*ELEMENT, TYPE=C3D3
5526, 121, 144, 131
*ELEMENT, TYPE=C3D3
5527, 136, 121, 116
*ELEMENT, TYPE=C3D3
5528, 121, 131, 110
*ELEMENT, TYPE=C3D3
5529, 116, 121, 101
*ELEMENT, TYPE=C3D3
5530, 110, 131, 119
*ELEMENT, TYPE=C3D3
5531, 101, 121, 110
*ELEMENT, TYPE=C3D3
5532, 116, 101, 97
*ELEMENT, TYPE=C3D3
5533, 101, 110, 90
*ELEMENT, TYPE=C3D3
5534, 97, 101, 84
*ELEMENT, TYPE=C3D3
5535, 90, 110, 100
*ELEMENT, TYPE=C3D3
5536, 101, 90, 84
*ELEMENT, TYPE=C3D3
5537, 100, 110, 119
*ELEMENT, TYPE=C3D3
5538, 261, 249, 278
*ELEMENT, TYPE=C3D3
5539, 278, 249, 268
*ELEMENT, TYPE=C3D3
5540, 268, 249, 238
*ELEMENT, TYPE=C3D3
5541, 278, 268, 300
*ELEMENT, TYPE=C3D3
5542, 238, 249, 220
*ELEMENT, TYPE=C3D3
5543, 300, 268, 286
*ELEMENT, TYPE=C3D3
5544, 238, 220, 210
*ELEMENT, TYPE=C3D3
5545, 286, 268, 256
*ELEMENT, TYPE=C3D3
5546, 238, 210, 225
*ELEMENT, TYPE=C3D3
5547, 256, 268, 238
*ELEMENT, TYPE=C3D3
5548, 225, 210, 199
*ELEMENT, TYPE=C3D3
5549, 256, 238, 225
*ELEMENT, TYPE=C3D3
5550, 199, 210, 183
*ELEMENT, TYPE=C3D3
5551, 256, 225, 247
*ELEMENT, TYPE=C3D3
5552, 199, 183, 174
*ELEMENT, TYPE=C3D3
5553, 247, 225, 219
*ELEMENT, TYPE=C3D3
5554, 174, 183, 158
*ELEMENT, TYPE=C3D3
5555, 219, 225, 199
*ELEMENT, TYPE=C3D3
5556, 174, 158, 151
*ELEMENT, TYPE=C3D3
5557, 219, 199, 194
*ELEMENT, TYPE=C3D3
5558, 151, 158, 136
*ELEMENT, TYPE=C3D3
5559, 194, 199, 174
*ELEMENT, TYPE=C3D3
5560, 151, 136, 128
*ELEMENT, TYPE=C3D3
5561, 194, 174, 169
*ELEMENT, TYPE=C3D3
5562, 128, 136, 116
*ELEMENT, TYPE=C3D3
5563, 169, 174, 151
*ELEMENT, TYPE=C3D3
5564, 128, 116, 108
*ELEMENT, TYPE=C3D3
5565, 108, 116, 97
*ELEMENT, TYPE=C3D3
5566, 128, 108, 126
*ELEMENT, TYPE=C3D3
5567, 108, 97, 91
*ELEMENT, TYPE=C3D3
5568, 126, 108, 106
*ELEMENT, TYPE=C3D3
5569, 91, 97, 80
*ELEMENT, TYPE=C3D3
5570, 106, 108, 91
*ELEMENT, TYPE=C3D3
5571, 126, 106, 122
*ELEMENT, TYPE=C3D3
5572, 80, 97, 84
*ELEMENT, TYPE=C3D3
5573, 122, 106, 104
*ELEMENT, TYPE=C3D3
5574, 126, 122, 142
*ELEMENT, TYPE=C3D3
5575, 104, 106, 88
*ELEMENT, TYPE=C3D3
5576, 122, 104, 120
*ELEMENT, TYPE=C3D3
5577, 142, 122, 139
*ELEMENT, TYPE=C3D3
5578, 88, 106, 91
*ELEMENT, TYPE=C3D3
5579, 120, 104, 105
*ELEMENT, TYPE=C3D3
5580, 139, 122, 120
*ELEMENT, TYPE=C3D3
5581, 105, 104, 87
*ELEMENT, TYPE=C3D3
5582, 120, 105, 123
*ELEMENT, TYPE=C3D3
5583, 139, 120, 140
*ELEMENT, TYPE=C3D3
5584, 87, 104, 88
*ELEMENT, TYPE=C3D3
5585, 123, 105, 107
*ELEMENT, TYPE=C3D3
5586, 140, 120, 123
*ELEMENT, TYPE=C3D3
5587, 87, 88, 71
*ELEMENT, TYPE=C3D3
5588, 107, 105, 89
*ELEMENT, TYPE=C3D3
5589, 140, 123, 143
*ELEMENT, TYPE=C3D3
5590, 71, 88, 77
*ELEMENT, TYPE=C3D3
5591, 89, 105, 87
*ELEMENT, TYPE=C3D3
5592, 143, 123, 127
*ELEMENT, TYPE=C3D3
5593, 77, 88, 91
*ELEMENT, TYPE=C3D3
5594, 127, 123, 107
*ELEMENT, TYPE=C3D3
5595, 143, 127, 149
*ELEMENT, TYPE=C3D3
5596, 77, 91, 80
*ELEMENT, TYPE=C3D3
5597, 149, 127, 130
*ELEMENT, TYPE=C3D3
5598, 77, 80, 64
*ELEMENT, TYPE=C3D3
5599, 64, 80, 68
*ELEMENT, TYPE=C3D3
5600, 77, 64, 62
*ELEMENT, TYPE=C3D3
5601, 68, 80, 84
*ELEMENT, TYPE=C3D3
5602, 62, 64, 50
*ELEMENT, TYPE=C3D3
5603, 68, 84, 73
*ELEMENT, TYPE=C3D3
5604, 50, 64, 54
*ELEMENT, TYPE=C3D3
5605, 73, 84, 90
*ELEMENT, TYPE=C3D3
5606, 54, 64, 68
*ELEMENT, TYPE=C3D3
5607, 169, 151, 147
*ELEMENT, TYPE=C3D3
5608, 147, 151, 128
*ELEMENT, TYPE=C3D3
5609, 169, 147, 164
*ELEMENT, TYPE=C3D3
5610, 147, 128, 126
*ELEMENT, TYPE=C3D3
5611, 164, 147, 142
*ELEMENT, TYPE=C3D3
5612, 142, 147, 126
*ELEMENT, TYPE=C3D3
5613, 164, 142, 162
*ELEMENT, TYPE=C3D3
5614, 162, 142, 139
*ELEMENT, TYPE=C3D3
5615, 164, 162, 184
*ELEMENT, TYPE=C3D3
5616, 162, 139, 161
*ELEMENT, TYPE=C3D3
5617, 184, 162, 181
*ELEMENT, TYPE=C3D3
5618, 164, 184, 188
*ELEMENT, TYPE=C3D3
5619, 161, 139, 140
*ELEMENT, TYPE=C3D3
5620, 162, 161, 181
*ELEMENT, TYPE=C3D3
5621, 188, 184, 209
*ELEMENT, TYPE=C3D3
5622, 181, 161, 182
*ELEMENT, TYPE=C3D3
5623, 209, 184, 205
*ELEMENT, TYPE=C3D3
5624, 188, 209, 215
*ELEMENT, TYPE=C3D3
5625, 182, 161, 163
*ELEMENT, TYPE=C3D3
5626, 181, 182, 204
*ELEMENT, TYPE=C3D3
5627, 205, 184, 181
*ELEMENT, TYPE=C3D3
5628, 215, 209, 236
*ELEMENT, TYPE=C3D3
5629, 163, 161, 140
*ELEMENT, TYPE=C3D3
5630, 204, 182, 208
*ELEMENT, TYPE=C3D3
5631, 205, 181, 204
*ELEMENT, TYPE=C3D3
5632, 236, 209, 230
*ELEMENT, TYPE=C3D3
5633, 208, 182, 186
*ELEMENT, TYPE=C3D3
5634, 204, 208, 228
*ELEMENT, TYPE=C3D3
5635, 205, 204, 227
*ELEMENT, TYPE=C3D3
5636, 186, 182, 163
*ELEMENT, TYPE=C3D3
5637, 204, 228, 227
*ELEMENT, TYPE=C3D3
5638, 186, 163, 165
*ELEMENT, TYPE=C3D3
5639, 227, 228, 253
*ELEMENT, TYPE=C3D3
5640, 165, 163, 143
*ELEMENT, TYPE=C3D3
5641, 186, 165, 189
*ELEMENT, TYPE=C3D3
5642, 253, 228, 255
*ELEMENT, TYPE=C3D3
5643, 143, 163, 140
*ELEMENT, TYPE=C3D3
5644, 189, 165, 172
*ELEMENT, TYPE=C3D3
5645, 255, 228, 231
*ELEMENT, TYPE=C3D3
5646, 231, 228, 208
*ELEMENT, TYPE=C3D3
5647, 231, 208, 211
*ELEMENT, TYPE=C3D3
5648, 211, 208, 186
*ELEMENT, TYPE=C3D3
5649, 231, 211, 237
*ELEMENT, TYPE=C3D3
5650, 211, 186, 189
*ELEMENT, TYPE=C3D3
5651, 237, 211, 216
*ELEMENT, TYPE=C3D3
5652, 211, 189, 216
*ELEMENT, TYPE=C3D3
5653, 230, 209, 205
*ELEMENT, TYPE=C3D3
5654, 230, 205, 227
*ELEMENT, TYPE=C3D3
5655, 230, 227, 254
*ELEMENT, TYPE=C3D3
5656, 254, 227, 253
*ELEMENT, TYPE=C3D3
5657, 254, 253, 282
*ELEMENT, TYPE=C3D3
5658, 282, 253, 283
*ELEMENT, TYPE=C3D3
5659, 283, 253, 255
*ELEMENT, TYPE=C3D3
5660, 282, 283, 309
*ELEMENT, TYPE=C3D3
5661, 283, 255, 285
*ELEMENT, TYPE=C3D3
5662, 309, 283, 311
*ELEMENT, TYPE=C3D3
5663, 282, 309, 310
*ELEMENT, TYPE=C3D3
5664, 285, 255, 259
*ELEMENT, TYPE=C3D3
5665, 311, 283, 285
*ELEMENT, TYPE=C3D3
5666, 309, 311, 339
*ELEMENT, TYPE=C3D3
5667, 310, 309, 338
*ELEMENT, TYPE=C3D3
5668, 259, 255, 231
*ELEMENT, TYPE=C3D3
5669, 339, 311, 342
*ELEMENT, TYPE=C3D3
5670, 309, 339, 338
*ELEMENT, TYPE=C3D3
5671, 259, 231, 237
*ELEMENT, TYPE=C3D3
5672, 342, 311, 316
*ELEMENT, TYPE=C3D3
5673, 338, 339, 371
*ELEMENT, TYPE=C3D3
5674, 259, 237, 264
*ELEMENT, TYPE=C3D3
5675, 316, 311, 285
*ELEMENT, TYPE=C3D3
5676, 342, 316, 347
*ELEMENT, TYPE=C3D3
5677, 371, 339, 374
*ELEMENT, TYPE=C3D3
5678, 259, 264, 288
*ELEMENT, TYPE=C3D3
5679, 316, 285, 288
*ELEMENT, TYPE=C3D3
5680, 347, 316, 319
*ELEMENT, TYPE=C3D3
5681, 374, 339, 342
*ELEMENT, TYPE=C3D3
5682, 259, 288, 285
*ELEMENT, TYPE=C3D3
5683, 319, 316, 288
*ELEMENT, TYPE=C3D3
5684, 1563, 1511, 1575
*ELEMENT, TYPE=C3D3
5685, 1575, 1511, 1531
*ELEMENT, TYPE=C3D3
5686, 1563, 1575, 1621
*ELEMENT, TYPE=C3D3
5687, 1531, 1511, 1467
*ELEMENT, TYPE=C3D3
5688, 1575, 1531, 1592
*ELEMENT, TYPE=C3D3
5689, 1621, 1575, 1635
*ELEMENT, TYPE=C3D3
5690, 1563, 1621, 1616
*ELEMENT, TYPE=C3D3
5691, 1592, 1531, 1542
*ELEMENT, TYPE=C3D3
5692, 1575, 1592, 1635
*ELEMENT, TYPE=C3D3
5693, 1563, 1616, 1558
*ELEMENT, TYPE=C3D3
5694, 1635, 1592, 1648
*ELEMENT, TYPE=C3D3
5695, 1648, 1592, 1603
*ELEMENT, TYPE=C3D3
5696, 1635, 1648, 1690
*ELEMENT, TYPE=C3D3
5697, 1603, 1592, 1542
*ELEMENT, TYPE=C3D3
5698, 1690, 1648, 1704
*ELEMENT, TYPE=C3D3
5699, 1635, 1690, 1679
*ELEMENT, TYPE=C3D3
5700, 1704, 1648, 1660
*ELEMENT, TYPE=C3D3
5701, 1690, 1704, 1746
*ELEMENT, TYPE=C3D3
5702, 1679, 1690, 1736
*ELEMENT, TYPE=C3D3
5703, 1660, 1648, 1603
*ELEMENT, TYPE=C3D3
5704, 1704, 1660, 1717
*ELEMENT, TYPE=C3D3
5705, 1746, 1704, 1757
*ELEMENT, TYPE=C3D3
5706, 1736, 1690, 1746
*ELEMENT, TYPE=C3D3
5707, 1717, 1660, 1674
*ELEMENT, TYPE=C3D3
5708, 1704, 1717, 1757
*ELEMENT, TYPE=C3D3
5709, 1736, 1746, 1789
*ELEMENT, TYPE=C3D3
5710, 1674, 1660, 1617
*ELEMENT, TYPE=C3D3
5711, 1757, 1717, 1772
*ELEMENT, TYPE=C3D3
5712, 1736, 1789, 1777
*ELEMENT, TYPE=C3D3
5713, 1674, 1617, 1632
*ELEMENT, TYPE=C3D3
5714, 1772, 1717, 1730
*ELEMENT, TYPE=C3D3
5715, 1777, 1789, 1832
*ELEMENT, TYPE=C3D3
5716, 1632, 1617, 1570
*ELEMENT, TYPE=C3D3
5717, 1730, 1717, 1674
*ELEMENT, TYPE=C3D3
5718, 1832, 1789, 1842
*ELEMENT, TYPE=C3D3
5719, 1570, 1617, 1556
*ELEMENT, TYPE=C3D3
5720, 1842, 1789, 1803
*ELEMENT, TYPE=C3D3
5721, 1832, 1842, 1883
*ELEMENT, TYPE=C3D3
5722, 1556, 1617, 1603
*ELEMENT, TYPE=C3D3
5723, 1803, 1789, 1746
*ELEMENT, TYPE=C3D3
5724, 1883, 1842, 1898
*ELEMENT, TYPE=C3D3
5725, 1603, 1617, 1660
*ELEMENT, TYPE=C3D3
5726, 1898, 1842, 1856
*ELEMENT, TYPE=C3D3
5727, 1883, 1898, 1936
*ELEMENT, TYPE=C3D3
5728, 1856, 1842, 1803
*ELEMENT, TYPE=C3D3
5729, 1936, 1898, 1949
*ELEMENT, TYPE=C3D3
5730, 1856, 1803, 1812
*ELEMENT, TYPE=C3D3
5731, 1949, 1898, 1909
*ELEMENT, TYPE=C3D3
5732, 1812, 1803, 1757
*ELEMENT, TYPE=C3D3
5733, 1856, 1812, 1866
*ELEMENT, TYPE=C3D3
5734, 1909, 1898, 1856
*ELEMENT, TYPE=C3D3
5735, 1757, 1803, 1746
*ELEMENT, TYPE=C3D3
5736, 1866, 1812, 1827
*ELEMENT, TYPE=C3D3
5737, 1827, 1812, 1772
*ELEMENT, TYPE=C3D3
5738, 1866, 1827, 1880
*ELEMENT, TYPE=C3D3
5739, 1772, 1812, 1757
*ELEMENT, TYPE=C3D3
5740, 1880, 1827, 1841
*ELEMENT, TYPE=C3D3
5741, 1866, 1880, 1921
*ELEMENT, TYPE=C3D3
5742, 1841, 1827, 1785
*ELEMENT, TYPE=C3D3
5743, 1880, 1841, 1895
*ELEMENT, TYPE=C3D3
5744, 1921, 1880, 1934
*ELEMENT, TYPE=C3D3
5745, 1785, 1827, 1772
*ELEMENT, TYPE=C3D3
5746, 1895, 1841, 1859
*ELEMENT, TYPE=C3D3
5747, 1934, 1880, 1895
*ELEMENT, TYPE=C3D3
5748, 1859, 1841, 1804
*ELEMENT, TYPE=C3D3
5749, 1895, 1859, 1913
*ELEMENT, TYPE=C3D3
5750, 1804, 1841, 1785
*ELEMENT, TYPE=C3D3
5751, 1859, 1804, 1818
*ELEMENT, TYPE=C3D3
5752, 1913, 1859, 1872
*ELEMENT, TYPE=C3D3
5753, 1818, 1804, 1764
*ELEMENT, TYPE=C3D3
5754, 1859, 1818, 1872
*ELEMENT, TYPE=C3D3
5755, 1764, 1804, 1747
*ELEMENT, TYPE=C3D3
5756, 1872, 1818, 1835
*ELEMENT, TYPE=C3D3
5757, 1747, 1804, 1785
*ELEMENT, TYPE=C3D3
5758, 1764, 1747, 1711
*ELEMENT, TYPE=C3D3
5759, 1835, 1818, 1781
*ELEMENT, TYPE=C3D3
5760, 1711, 1747, 1689
*ELEMENT, TYPE=C3D3
5761, 1764, 1711, 1723
*ELEMENT, TYPE=C3D3
5762, 1781, 1818, 1764
*ELEMENT, TYPE=C3D3
5763, 1689, 1747, 1730
*ELEMENT, TYPE=C3D3
5764, 1764, 1723, 1781
*ELEMENT, TYPE=C3D3
5765, 1730, 1747, 1785
*ELEMENT, TYPE=C3D3
5766, 1730, 1785, 1772
*ELEMENT, TYPE=C3D3
5767, 1909, 1856, 1866
*ELEMENT, TYPE=C3D3
5768, 1909, 1866, 1921
*ELEMENT, TYPE=C3D3
5769, 1909, 1921, 1961
*ELEMENT, TYPE=C3D3
5770, 1961, 1921, 1973
*ELEMENT, TYPE=C3D3
5771, 1909, 1961, 1949
*ELEMENT, TYPE=C3D3
5772, 1973, 1921, 1934
*ELEMENT, TYPE=C3D3
5773, 1961, 1973, 2013
*ELEMENT, TYPE=C3D3
5774, 1949, 1961, 2001
*ELEMENT, TYPE=C3D3
5775, 1973, 1934, 1988
*ELEMENT, TYPE=C3D3
5776, 1961, 2013, 2001
*ELEMENT, TYPE=C3D3
5777, 1949, 2001, 1990
*ELEMENT, TYPE=C3D3
5778, 1988, 1934, 1950
*ELEMENT, TYPE=C3D3
5779, 2001, 2013, 2052
*ELEMENT, TYPE=C3D3
5780, 1949, 1990, 1936
*ELEMENT, TYPE=C3D3
5781, 1950, 1934, 1895
*ELEMENT, TYPE=C3D3
5782, 2052, 2013, 2062
*ELEMENT, TYPE=C3D3
5783, 1936, 1990, 1976
*ELEMENT, TYPE=C3D3
5784, 2062, 2013, 2025
*ELEMENT, TYPE=C3D3
5785, 2052, 2062, 2104
*ELEMENT, TYPE=C3D3
5786, 2025, 2013, 1973
*ELEMENT, TYPE=C3D3
5787, 2062, 2025, 2077
*ELEMENT, TYPE=C3D3
5788, 2104, 2062, 2113
*ELEMENT, TYPE=C3D3
5789, 2077, 2025, 2039
*ELEMENT, TYPE=C3D3
5790, 2113, 2062, 2077
*ELEMENT, TYPE=C3D3
5791, 2039, 2025, 1988
*ELEMENT, TYPE=C3D3
5792, 2113, 2077, 2129
*ELEMENT, TYPE=C3D3
5793, 1988, 2025, 1973
*ELEMENT, TYPE=C3D3
5794, 2129, 2077, 2093
*ELEMENT, TYPE=C3D3
5795, 2113, 2129, 2164
*ELEMENT, TYPE=C3D3
5796, 2093, 2077, 2039
*ELEMENT, TYPE=C3D3
5797, 2164, 2129, 2182
*ELEMENT, TYPE=C3D3
5798, 2093, 2039, 2055
*ELEMENT, TYPE=C3D3
5799, 2182, 2129, 2143
*ELEMENT, TYPE=C3D3
5800, 2055, 2039, 2003
*ELEMENT, TYPE=C3D3
5801, 2093, 2055, 2108
*ELEMENT, TYPE=C3D3
5802, 2143, 2129, 2093
*ELEMENT, TYPE=C3D3
5803, 2003, 2039, 1988
*ELEMENT, TYPE=C3D3
5804, 2108, 2055, 2068
*ELEMENT, TYPE=C3D3
5805, 2003, 1988, 1950
*ELEMENT, TYPE=C3D3
5806, 2068, 2055, 2019
*ELEMENT, TYPE=C3D3
5807, 2108, 2068, 2123
*ELEMENT, TYPE=C3D3
5808, 2019, 2055, 2003
*ELEMENT, TYPE=C3D3
5809, 2068, 2019, 2032
*ELEMENT, TYPE=C3D3
5810, 2123, 2068, 2087
*ELEMENT, TYPE=C3D3
5811, 2019, 2003, 1967
*ELEMENT, TYPE=C3D3
5812, 2032, 2019, 1980
*ELEMENT, TYPE=C3D3
5813, 2087, 2068, 2032
*ELEMENT, TYPE=C3D3
5814, 1967, 2003, 1950
*ELEMENT, TYPE=C3D3
5815, 1980, 2019, 1967
*ELEMENT, TYPE=C3D3
5816, 1967, 1950, 1913
*ELEMENT, TYPE=C3D3
5817, 1980, 1967, 1927
*ELEMENT, TYPE=C3D3
5818, 1913, 1950, 1895
*ELEMENT, TYPE=C3D3
5819, 1967, 1913, 1927
*ELEMENT, TYPE=C3D3
5820, 1927, 1913, 1872
*ELEMENT, TYPE=C3D3
5821, 1927, 1872, 1891
*ELEMENT, TYPE=C3D3
5822, 1891, 1872, 1835
*ELEMENT, TYPE=C3D3
5823, 1927, 1891, 1946
*ELEMENT, TYPE=C3D3
5824, 1891, 1835, 1857
*ELEMENT, TYPE=C3D3
5825, 1946, 1891, 1912
*ELEMENT, TYPE=C3D3
5826, 1927, 1946, 1980
*ELEMENT, TYPE=C3D3
5827, 1857, 1835, 1801
*ELEMENT, TYPE=C3D3
5828, 1912, 1891, 1857
*ELEMENT, TYPE=C3D3
5829, 1980, 1946, 1999
*ELEMENT, TYPE=C3D3
5830, 1801, 1835, 1781
*ELEMENT, TYPE=C3D3
5831, 1999, 1946, 1966
*ELEMENT, TYPE=C3D3
5832, 1980, 1999, 2032
*ELEMENT, TYPE=C3D3
5833, 1966, 1946, 1912
*ELEMENT, TYPE=C3D3
5834, 1999, 1966, 2020
*ELEMENT, TYPE=C3D3
5835, 2032, 1999, 2053
*ELEMENT, TYPE=C3D3
5836, 2020, 1966, 1983
*ELEMENT, TYPE=C3D3
5837, 1999, 2020, 2053
*ELEMENT, TYPE=C3D3
5838, 1983, 1966, 1930
*ELEMENT, TYPE=C3D3
5839, 2053, 2020, 2071
*ELEMENT, TYPE=C3D3
5840, 1930, 1966, 1912
*ELEMENT, TYPE=C3D3
5841, 1983, 1930, 1952
*ELEMENT, TYPE=C3D3
5842, 2071, 2020, 2037
*ELEMENT, TYPE=C3D3
5843, 1983, 1952, 2004
*ELEMENT, TYPE=C3D3
5844, 2037, 2020, 1983
*ELEMENT, TYPE=C3D3
5845, 1983, 2004, 2037
*ELEMENT, TYPE=C3D3
5846, 2037, 2004, 2059
*ELEMENT, TYPE=C3D3
5847, 2059, 2004, 2026
*ELEMENT, TYPE=C3D3
5848, 2037, 2059, 2090
*ELEMENT, TYPE=C3D3
5849, 2059, 2026, 2078
*ELEMENT, TYPE=C3D3
5850, 2090, 2059, 2111
*ELEMENT, TYPE=C3D3
5851, 2059, 2078, 2111
*ELEMENT, TYPE=C3D3
5852, 2111, 2078, 2133
*ELEMENT, TYPE=C3D3
5853, 2133, 2078, 2103
*ELEMENT, TYPE=C3D3
5854, 2111, 2133, 2163
*ELEMENT, TYPE=C3D3
5855, 2133, 2103, 2156
*ELEMENT, TYPE=C3D3
5856, 2163, 2133, 2186
*ELEMENT, TYPE=C3D3
5857, 2133, 2156, 2186
*ELEMENT, TYPE=C3D3
5858, 2186, 2156, 2208
*ELEMENT, TYPE=C3D3
5859, 2208, 2156, 2180
*ELEMENT, TYPE=C3D3
5860, 2186, 2208, 2237
*ELEMENT, TYPE=C3D3
5861, 2208, 2180, 2231
*ELEMENT, TYPE=C3D3
5862, 2237, 2208, 2259
*ELEMENT, TYPE=C3D3
5863, 2208, 2231, 2259
*ELEMENT, TYPE=C3D3
5864, 2259, 2231, 2285
*ELEMENT, TYPE=C3D3
5865, 2285, 2231, 2253
*ELEMENT, TYPE=C3D3
5866, 2259, 2285, 2311
*ELEMENT, TYPE=C3D3
5867, 2285, 2253, 2302
*ELEMENT, TYPE=C3D3
5868, 2311, 2285, 2336
*ELEMENT, TYPE=C3D3
5869, 2285, 2302, 2336
*ELEMENT, TYPE=C3D3
5870, 2336, 2302, 2357
*ELEMENT, TYPE=C3D3
5871, 2357, 2302, 2331
*ELEMENT, TYPE=C3D3
5872, 2336, 2357, 2386
*ELEMENT, TYPE=C3D3
5873, 2357, 2331, 2382
*ELEMENT, TYPE=C3D3
5874, 2386, 2357, 2409
*ELEMENT, TYPE=C3D3
5875, 2357, 2382, 2409
*ELEMENT, TYPE=C3D3
5876, 2409, 2382, 2423
*ELEMENT, TYPE=C3D3
5877, 2423, 2382, 2405
*ELEMENT, TYPE=C3D3
5878, 2409, 2423, 2463
*ELEMENT, TYPE=C3D3
5879, 2463, 2423, 2454
*ELEMENT, TYPE=C3D3
5880, 2423, 2405, 2454
*ELEMENT, TYPE=C3D3
5881, 1990, 2001, 2041
*ELEMENT, TYPE=C3D3
5882, 2041, 2001, 2052
*ELEMENT, TYPE=C3D3
5883, 2143, 2093, 2108
*ELEMENT, TYPE=C3D3
5884, 2143, 2108, 2159
*ELEMENT, TYPE=C3D3
5885, 2159, 2108, 2123
*ELEMENT, TYPE=C3D3
5886, 2143, 2159, 2194
*ELEMENT, TYPE=C3D3
5887, 2159, 2123, 2176
*ELEMENT, TYPE=C3D3
5888, 2194, 2159, 2211
*ELEMENT, TYPE=C3D3
5889, 2143, 2194, 2182
*ELEMENT, TYPE=C3D3
5890, 2176, 2123, 2138
*ELEMENT, TYPE=C3D3
5891, 2159, 2176, 2211
*ELEMENT, TYPE=C3D3
5892, 2182, 2194, 2232
*ELEMENT, TYPE=C3D3
5893, 2176, 2138, 2191
*ELEMENT, TYPE=C3D3
5894, 2211, 2176, 2227
*ELEMENT, TYPE=C3D3
5895, 2191, 2138, 2158
*ELEMENT, TYPE=C3D3
5896, 2176, 2191, 2227
*ELEMENT, TYPE=C3D3
5897, 2158, 2138, 2106
*ELEMENT, TYPE=C3D3
5898, 2227, 2191, 2243
*ELEMENT, TYPE=C3D3
5899, 2106, 2138, 2087
*ELEMENT, TYPE=C3D3
5900, 2158, 2106, 2124
*ELEMENT, TYPE=C3D3
5901, 2243, 2191, 2210
*ELEMENT, TYPE=C3D3
5902, 2087, 2138, 2123
*ELEMENT, TYPE=C3D3
5903, 2124, 2106, 2071
*ELEMENT, TYPE=C3D3
5904, 2210, 2191, 2158
*ELEMENT, TYPE=C3D3
5905, 2071, 2106, 2053
*ELEMENT, TYPE=C3D3
5906, 2210, 2158, 2179
*ELEMENT, TYPE=C3D3
5907, 2053, 2106, 2087
*ELEMENT, TYPE=C3D3
5908, 2179, 2158, 2124
*ELEMENT, TYPE=C3D3
5909, 2179, 2124, 2144
*ELEMENT, TYPE=C3D3
5910, 2144, 2124, 2090
*ELEMENT, TYPE=C3D3
5911, 2179, 2144, 2195
*ELEMENT, TYPE=C3D3
5912, 2090, 2124, 2071
*ELEMENT, TYPE=C3D3
5913, 2144, 2090, 2111
*ELEMENT, TYPE=C3D3
5914, 2195, 2144, 2163
*ELEMENT, TYPE=C3D3
5915, 2144, 2111, 2163
*ELEMENT, TYPE=C3D3
5916, 2195, 2163, 2216
*ELEMENT, TYPE=C3D3
5917, 2216, 2163, 2186
*ELEMENT, TYPE=C3D3
5918, 2195, 2216, 2247
*ELEMENT, TYPE=C3D3
5919, 2216, 2186, 2237
*ELEMENT, TYPE=C3D3
5920, 2247, 2216, 2269
*ELEMENT, TYPE=C3D3
5921, 2216, 2237, 2269
*ELEMENT, TYPE=C3D3
5922, 2247, 2269, 2312
*ELEMENT, TYPE=C3D3
5923, 2269, 2237, 2289
*ELEMENT, TYPE=C3D3
5924, 2312, 2269, 2320
*ELEMENT, TYPE=C3D3
5925, 2247, 2312, 2283
*ELEMENT, TYPE=C3D3
5926, 2289, 2237, 2259
*ELEMENT, TYPE=C3D3
5927, 2320, 2269, 2289
*ELEMENT, TYPE=C3D3
5928, 2283, 2312, 2333
*ELEMENT, TYPE=C3D3
5929, 2289, 2259, 2311
*ELEMENT, TYPE=C3D3
5930, 2320, 2289, 2339
*ELEMENT, TYPE=C3D3
5931, 2333, 2312, 2373
*ELEMENT, TYPE=C3D3
5932, 2339, 2289, 2311
*ELEMENT, TYPE=C3D3
5933, 2320, 2339, 2365
*ELEMENT, TYPE=C3D3
5934, 2320, 2365, 2312
*ELEMENT, TYPE=C3D3
5935, 2339, 2311, 2349
*ELEMENT, TYPE=C3D3
5936, 2349, 2311, 2336
*ELEMENT, TYPE=C3D3
5937, 2339, 2349, 2393
*ELEMENT, TYPE=C3D3
5938, 2393, 2349, 2386
*ELEMENT, TYPE=C3D3
5939, 2349, 2336, 2386
*ELEMENT, TYPE=C3D3
5940, 2232, 2194, 2246
*ELEMENT, TYPE=C3D3
5941, 2246, 2194, 2211
*ELEMENT, TYPE=C3D3
5942, 2246, 2211, 2261
*ELEMENT, TYPE=C3D3
5943, 2261, 2211, 2227
*ELEMENT, TYPE=C3D3
5944, 2246, 2261, 2296
*ELEMENT, TYPE=C3D3
5945, 2261, 2227, 2279
*ELEMENT, TYPE=C3D3
5946, 2296, 2261, 2313
*ELEMENT, TYPE=C3D3
5947, 2279, 2227, 2243
*ELEMENT, TYPE=C3D3
5948, 2313, 2261, 2279
*ELEMENT, TYPE=C3D3
5949, 2279, 2243, 2294
*ELEMENT, TYPE=C3D3
5950, 2313, 2279, 2330
*ELEMENT, TYPE=C3D3
5951, 2294, 2243, 2262
*ELEMENT, TYPE=C3D3
5952, 2330, 2279, 2294
*ELEMENT, TYPE=C3D3
5953, 2262, 2243, 2210
*ELEMENT, TYPE=C3D3
5954, 2294, 2262, 2314
*ELEMENT, TYPE=C3D3
5955, 2262, 2210, 2230
*ELEMENT, TYPE=C3D3
5956, 2314, 2262, 2283
*ELEMENT, TYPE=C3D3
5957, 2294, 2314, 2344
*ELEMENT, TYPE=C3D3
5958, 2230, 2210, 2179
*ELEMENT, TYPE=C3D3
5959, 2283, 2262, 2230
*ELEMENT, TYPE=C3D3
5960, 2344, 2314, 2367
*ELEMENT, TYPE=C3D3
5961, 2230, 2179, 2195
*ELEMENT, TYPE=C3D3
5962, 2283, 2230, 2247
*ELEMENT, TYPE=C3D3
5963, 2367, 2314, 2333
*ELEMENT, TYPE=C3D3
5964, 2230, 2195, 2247
*ELEMENT, TYPE=C3D3
5965, 2333, 2314, 2283
*ELEMENT, TYPE=C3D3
5966, 2090, 2071, 2037
*ELEMENT, TYPE=C3D3
5967, 2330, 2294, 2344
*ELEMENT, TYPE=C3D3
5968, 2330, 2344, 2379
*ELEMENT, TYPE=C3D3
5969, 2379, 2344, 2394
*ELEMENT, TYPE=C3D3
5970, 2330, 2379, 2366
*ELEMENT, TYPE=C3D3
5971, 2394, 2344, 2367
*ELEMENT, TYPE=C3D3
5972, 2379, 2394, 2428
*ELEMENT, TYPE=C3D3
5973, 2394, 2367, 2416
*ELEMENT, TYPE=C3D3
5974, 2428, 2394, 2448
*ELEMENT, TYPE=C3D3
5975, 2448, 2394, 2416
*ELEMENT, TYPE=C3D3
5976, 731, 748, 784
*ELEMENT, TYPE=C3D3
5977, 784, 748, 799
*ELEMENT, TYPE=C3D3
5978, 799, 748, 771
*ELEMENT, TYPE=C3D3
5979, 784, 799, 836
*ELEMENT, TYPE=C3D3
5980, 799, 771, 826
*ELEMENT, TYPE=C3D3
5981, 836, 799, 857
*ELEMENT, TYPE=C3D3
5982, 784, 836, 814
*ELEMENT, TYPE=C3D3
5983, 826, 771, 791
*ELEMENT, TYPE=C3D3
5984, 857, 799, 826
*ELEMENT, TYPE=C3D3
5985, 836, 857, 890
*ELEMENT, TYPE=C3D3
5986, 814, 836, 870
*ELEMENT, TYPE=C3D3
5987, 826, 791, 844
*ELEMENT, TYPE=C3D3
5988, 890, 857, 913
*ELEMENT, TYPE=C3D3
5989, 836, 890, 870
*ELEMENT, TYPE=C3D3
5990, 844, 791, 817
*ELEMENT, TYPE=C3D3
5991, 913, 857, 880
*ELEMENT, TYPE=C3D3
5992, 870, 890, 926
*ELEMENT, TYPE=C3D3
5993, 844, 817, 872
*ELEMENT, TYPE=C3D3
5994, 913, 880, 935
*ELEMENT, TYPE=C3D3
5995, 926, 890, 946
*ELEMENT, TYPE=C3D3
5996, 872, 817, 841
*ELEMENT, TYPE=C3D3
5997, 935, 880, 902
*ELEMENT, TYPE=C3D3
5998, 946, 890, 913
*ELEMENT, TYPE=C3D3
5999, 841, 817, 787
*ELEMENT, TYPE=C3D3
6000, 902, 880, 844
*ELEMENT, TYPE=C3D3
6001, 946, 913, 971
*ELEMENT, TYPE=C3D3
6002, 787, 817, 763
*ELEMENT, TYPE=C3D3
6003, 844, 880, 826
*ELEMENT, TYPE=C3D3
6004, 971, 913, 935
*ELEMENT, TYPE=C3D3
6005, 763, 817, 791
*ELEMENT, TYPE=C3D3
6006, 826, 880, 857
*ELEMENT, TYPE=C3D3
6007, 312, 278, 300
*ELEMENT, TYPE=C3D3
6008, 312, 300, 332
*ELEMENT, TYPE=C3D3
6009, 971, 935, 993
*ELEMENT, TYPE=C3D3
6010, 993, 935, 960
*ELEMENT, TYPE=C3D3
6011, 971, 993, 1032
*ELEMENT, TYPE=C3D3
6012, 960, 935, 902
*ELEMENT, TYPE=C3D3
6013, 993, 960, 1021
*ELEMENT, TYPE=C3D3
6014, 1032, 993, 1055
*ELEMENT, TYPE=C3D3
6015, 960, 902, 930
*ELEMENT, TYPE=C3D3
6016, 1021, 960, 987
*ELEMENT, TYPE=C3D3
6017, 993, 1021, 1055
*ELEMENT, TYPE=C3D3
6018, 930, 902, 872
*ELEMENT, TYPE=C3D3
6019, 987, 960, 930
*ELEMENT, TYPE=C3D3
6020, 1055, 1021, 1083
*ELEMENT, TYPE=C3D3
6021, 872, 902, 844
*ELEMENT, TYPE=C3D3
6022, 930, 872, 894
*ELEMENT, TYPE=C3D3
6023, 987, 930, 955
*ELEMENT, TYPE=C3D3
6024, 1083, 1021, 1046
*ELEMENT, TYPE=C3D3
6025, 894, 872, 841
*ELEMENT, TYPE=C3D3
6026, 930, 894, 955
*ELEMENT, TYPE=C3D3
6027, 1046, 1021, 987
*ELEMENT, TYPE=C3D3
6028, 955, 894, 929
*ELEMENT, TYPE=C3D3
6029, 1046, 987, 1014
*ELEMENT, TYPE=C3D3
6030, 929, 894, 871
*ELEMENT, TYPE=C3D3
6031, 955, 929, 986
*ELEMENT, TYPE=C3D3
6032, 1014, 987, 955
*ELEMENT, TYPE=C3D3
6033, 871, 894, 841
*ELEMENT, TYPE=C3D3
6034, 929, 871, 898
*ELEMENT, TYPE=C3D3
6035, 986, 929, 959
*ELEMENT, TYPE=C3D3
6036, 1014, 955, 986
*ELEMENT, TYPE=C3D3
6037, 871, 841, 815
*ELEMENT, TYPE=C3D3
6038, 898, 871, 842
*ELEMENT, TYPE=C3D3
6039, 959, 929, 898
*ELEMENT, TYPE=C3D3
6040, 1014, 986, 1044
*ELEMENT, TYPE=C3D3
6041, 815, 841, 787
*ELEMENT, TYPE=C3D3
6042, 842, 871, 815
*ELEMENT, TYPE=C3D3
6043, 959, 898, 934
*ELEMENT, TYPE=C3D3
6044, 1044, 986, 1018
*ELEMENT, TYPE=C3D3
6045, 815, 787, 761
*ELEMENT, TYPE=C3D3
6046, 842, 815, 790
*ELEMENT, TYPE=C3D3
6047, 934, 898, 879
*ELEMENT, TYPE=C3D3
6048, 1018, 986, 959
*ELEMENT, TYPE=C3D3
6049, 761, 787, 736
*ELEMENT, TYPE=C3D3
6050, 790, 815, 761
*ELEMENT, TYPE=C3D3
6051, 879, 898, 842
*ELEMENT, TYPE=C3D3
6052, 1018, 959, 991
*ELEMENT, TYPE=C3D3
6053, 736, 787, 763
*ELEMENT, TYPE=C3D3
6054, 790, 761, 737
*ELEMENT, TYPE=C3D3
6055, 879, 842, 822
*ELEMENT, TYPE=C3D3
6056, 991, 959, 934
*ELEMENT, TYPE=C3D3
6057, 737, 761, 706
*ELEMENT, TYPE=C3D3
6058, 790, 737, 769
*ELEMENT, TYPE=C3D3
6059, 822, 842, 790
*ELEMENT, TYPE=C3D3
6060, 706, 761, 736
*ELEMENT, TYPE=C3D3
6061, 737, 706, 688
*ELEMENT, TYPE=C3D3
6062, 769, 737, 717
*ELEMENT, TYPE=C3D3
6063, 822, 790, 769
*ELEMENT, TYPE=C3D3
6064, 688, 706, 657
*ELEMENT, TYPE=C3D3
6065, 737, 688, 717
*ELEMENT, TYPE=C3D3
6066, 822, 769, 796
*ELEMENT, TYPE=C3D3
6067, 657, 706, 686
*ELEMENT, TYPE=C3D3
6068, 717, 688, 665
*ELEMENT, TYPE=C3D3
6069, 796, 769, 745
*ELEMENT, TYPE=C3D3
6070, 822, 796, 852
*ELEMENT, TYPE=C3D3
6071, 686, 706, 736
*ELEMENT, TYPE=C3D3
6072, 745, 769, 717
*ELEMENT, TYPE=C3D3
6073, 822, 852, 879
*ELEMENT, TYPE=C3D3
6074, 879, 852, 909
*ELEMENT, TYPE=C3D3
6075, 909, 852, 886
*ELEMENT, TYPE=C3D3
6076, 879, 909, 934
*ELEMENT, TYPE=C3D3
6077, 886, 852, 832
*ELEMENT, TYPE=C3D3
6078, 934, 909, 969
*ELEMENT, TYPE=C3D3
6079, 832, 852, 796
*ELEMENT, TYPE=C3D3
6080, 934, 969, 991
*ELEMENT, TYPE=C3D3
6081, 832, 796, 778
*ELEMENT, TYPE=C3D3
6082, 991, 969, 1028
*ELEMENT, TYPE=C3D3
6083, 778, 796, 745
*ELEMENT, TYPE=C3D3
6084, 1028, 969, 1001
*ELEMENT, TYPE=C3D3
6085, 1001, 969, 942
*ELEMENT, TYPE=C3D3
6086, 1028, 1001, 1064
*ELEMENT, TYPE=C3D3
6087, 942, 969, 909
*ELEMENT, TYPE=C3D3
6088, 1064, 1001, 1038
*ELEMENT, TYPE=C3D3
6089, 1064, 1038, 1098
*ELEMENT, TYPE=C3D3
6090, 1098, 1038, 1077
*ELEMENT, TYPE=C3D3
6091, 717, 665, 696
*ELEMENT, TYPE=C3D3
6092, 696, 665, 647
*ELEMENT, TYPE=C3D3
6093, 647, 665, 618
*ELEMENT, TYPE=C3D3
6094, 696, 647, 675
*ELEMENT, TYPE=C3D3
6095, 618, 665, 638
*ELEMENT, TYPE=C3D3
6096, 675, 647, 626
*ELEMENT, TYPE=C3D3
6097, 638, 665, 688
*ELEMENT, TYPE=C3D3
6098, 675, 626, 656
*ELEMENT, TYPE=C3D3
6099, 656, 626, 610
*ELEMENT, TYPE=C3D3
6100, 675, 656, 703
*ELEMENT, TYPE=C3D3
6101, 610, 626, 580
*ELEMENT, TYPE=C3D3
6102, 703, 656, 692
*ELEMENT, TYPE=C3D3
6103, 580, 626, 598
*ELEMENT, TYPE=C3D3
6104, 692, 656, 644
*ELEMENT, TYPE=C3D3
6105, 598, 626, 647
*ELEMENT, TYPE=C3D3
6106, 644, 656, 610
*ELEMENT, TYPE=C3D3
6107, 644, 610, 597
*ELEMENT, TYPE=C3D3
6108, 597, 610, 566
*ELEMENT, TYPE=C3D3
6109, 566, 610, 580
*ELEMENT, TYPE=C3D3
6110, 597, 566, 552
*ELEMENT, TYPE=C3D3
6111, 552, 566, 520
*ELEMENT, TYPE=C3D3
6112, 597, 552, 582
*ELEMENT, TYPE=C3D3
6113, 520, 566, 536
*ELEMENT, TYPE=C3D3
6114, 582, 552, 540
*ELEMENT, TYPE=C3D3
6115, 597, 582, 629
*ELEMENT, TYPE=C3D3
6116, 536, 566, 580
*ELEMENT, TYPE=C3D3
6117, 540, 552, 509
*ELEMENT, TYPE=C3D3
6118, 629, 582, 619
*ELEMENT, TYPE=C3D3
6119, 509, 552, 520
*ELEMENT, TYPE=C3D3
6120, 619, 582, 576
*ELEMENT, TYPE=C3D3
6121, 629, 619, 664
*ELEMENT, TYPE=C3D3
6122, 576, 582, 540
*ELEMENT, TYPE=C3D3
6123, 619, 576, 607
*ELEMENT, TYPE=C3D3
6124, 664, 619, 654
*ELEMENT, TYPE=C3D3
6125, 576, 540, 534
*ELEMENT, TYPE=C3D3
6126, 607, 576, 563
*ELEMENT, TYPE=C3D3
6127, 654, 619, 607
*ELEMENT, TYPE=C3D3
6128, 534, 540, 498
*ELEMENT, TYPE=C3D3
6129, 563, 576, 534
*ELEMENT, TYPE=C3D3
6130, 654, 607, 645
*ELEMENT, TYPE=C3D3
6131, 498, 540, 509
*ELEMENT, TYPE=C3D3
6132, 645, 607, 600
*ELEMENT, TYPE=C3D3
6133, 654, 645, 691
*ELEMENT, TYPE=C3D3
6134, 600, 607, 563
*ELEMENT, TYPE=C3D3
6135, 645, 600, 637
*ELEMENT, TYPE=C3D3
6136, 691, 645, 683
*ELEMENT, TYPE=C3D3
6137, 600, 563, 558
*ELEMENT, TYPE=C3D3
6138, 637, 600, 594
*ELEMENT, TYPE=C3D3
6139, 683, 645, 637
*ELEMENT, TYPE=C3D3
6140, 558, 563, 522
*ELEMENT, TYPE=C3D3
6141, 594, 600, 558
*ELEMENT, TYPE=C3D3
6142, 683, 637, 676
*ELEMENT, TYPE=C3D3
6143, 522, 563, 534
*ELEMENT, TYPE=C3D3
6144, 676, 637, 633
*ELEMENT, TYPE=C3D3
6145, 683, 676, 723
*ELEMENT, TYPE=C3D3
6146, 633, 637, 594
*ELEMENT, TYPE=C3D3
6147, 676, 633, 673
*ELEMENT, TYPE=C3D3
6148, 723, 676, 718
*ELEMENT, TYPE=C3D3
6149, 633, 594, 589
*ELEMENT, TYPE=C3D3
6150, 673, 633, 627
*ELEMENT, TYPE=C3D3
6151, 718, 676, 673
*ELEMENT, TYPE=C3D3
6152, 589, 594, 551
*ELEMENT, TYPE=C3D3
6153, 627, 633, 589
*ELEMENT, TYPE=C3D3
6154, 551, 594, 558
*ELEMENT, TYPE=C3D3
6155, 589, 551, 548
*ELEMENT, TYPE=C3D3
6156, 551, 558, 517
*ELEMENT, TYPE=C3D3
6157, 548, 551, 513
*ELEMENT, TYPE=C3D3
6158, 517, 558, 522
*ELEMENT, TYPE=C3D3
6159, 551, 517, 513
*ELEMENT, TYPE=C3D3
6160, 513, 517, 476
*ELEMENT, TYPE=C3D3
6161, 476, 517, 484
*ELEMENT, TYPE=C3D3
6162, 513, 476, 473
*ELEMENT, TYPE=C3D3
6163, 484, 517, 522
*ELEMENT, TYPE=C3D3
6164, 476, 484, 446
*ELEMENT, TYPE=C3D3
6165, 473, 476, 439
*ELEMENT, TYPE=C3D3
6166, 484, 522, 490
*ELEMENT, TYPE=C3D3
6167, 446, 484, 451
*ELEMENT, TYPE=C3D3
6168, 439, 476, 446
*ELEMENT, TYPE=C3D3
6169, 490, 522, 534
*ELEMENT, TYPE=C3D3
6170, 451, 484, 490
*ELEMENT, TYPE=C3D3
6171, 490, 534, 498
*ELEMENT, TYPE=C3D3
6172, 451, 490, 460
*ELEMENT, TYPE=C3D3
6173, 490, 498, 460
*ELEMENT, TYPE=C3D3
6174, 451, 460, 423
*ELEMENT, TYPE=C3D3
6175, 460, 498, 467
*ELEMENT, TYPE=C3D3
6176, 423, 460, 429
*ELEMENT, TYPE=C3D3
6177, 451, 423, 413
*ELEMENT, TYPE=C3D3
6178, 467, 498, 509
*ELEMENT, TYPE=C3D3
6179, 429, 460, 467
*ELEMENT, TYPE=C3D3
6180, 413, 423, 386
*ELEMENT, TYPE=C3D3
6181, 467, 509, 480
*ELEMENT, TYPE=C3D3
6182, 413, 386, 378
*ELEMENT, TYPE=C3D3
6183, 480, 509, 520
*ELEMENT, TYPE=C3D3
6184, 378, 386, 352
*ELEMENT, TYPE=C3D3
6185, 413, 378, 411
*ELEMENT, TYPE=C3D3
6186, 480, 520, 494
*ELEMENT, TYPE=C3D3
6187, 378, 352, 345
*ELEMENT, TYPE=C3D3
6188, 411, 378, 375
*ELEMENT, TYPE=C3D3
6189, 494, 520, 536
*ELEMENT, TYPE=C3D3
6190, 345, 352, 318
*ELEMENT, TYPE=C3D3
6191, 375, 378, 345
*ELEMENT, TYPE=C3D3
6192, 345, 318, 315
*ELEMENT, TYPE=C3D3
6193, 315, 318, 287
*ELEMENT, TYPE=C3D3
6194, 345, 315, 340
*ELEMENT, TYPE=C3D3
6195, 287, 318, 292
*ELEMENT, TYPE=C3D3
6196, 340, 315, 310
*ELEMENT, TYPE=C3D3
6197, 345, 340, 375
*ELEMENT, TYPE=C3D3
6198, 292, 318, 325
*ELEMENT, TYPE=C3D3
6199, 310, 315, 284
*ELEMENT, TYPE=C3D3
6200, 375, 340, 373
*ELEMENT, TYPE=C3D3
6201, 292, 325, 301
*ELEMENT, TYPE=C3D3
6202, 284, 315, 287
*ELEMENT, TYPE=C3D3
6203, 373, 340, 338
*ELEMENT, TYPE=C3D3
6204, 284, 287, 258
*ELEMENT, TYPE=C3D3
6205, 338, 340, 310
*ELEMENT, TYPE=C3D3
6206, 258, 287, 262
*ELEMENT, TYPE=C3D3
6207, 284, 258, 254
*ELEMENT, TYPE=C3D3
6208, 262, 287, 292
*ELEMENT, TYPE=C3D3
6209, 254, 258, 230
*ELEMENT, TYPE=C3D3
6210, 262, 292, 271
*ELEMENT, TYPE=C3D3
6211, 230, 258, 236
*ELEMENT, TYPE=C3D3
6212, 262, 271, 242
*ELEMENT, TYPE=C3D3
6213, 236, 258, 262
*ELEMENT, TYPE=C3D3
6214, 242, 271, 247
*ELEMENT, TYPE=C3D3
6215, 236, 262, 242
*ELEMENT, TYPE=C3D3
6216, 247, 271, 275
*ELEMENT, TYPE=C3D3
6217, 236, 242, 215
*ELEMENT, TYPE=C3D3
6218, 275, 271, 301
*ELEMENT, TYPE=C3D3
6219, 215, 242, 219
*ELEMENT, TYPE=C3D3
6220, 301, 271, 292
*ELEMENT, TYPE=C3D3
6221, 219, 242, 247
*ELEMENT, TYPE=C3D3
6222, 215, 219, 194
*ELEMENT, TYPE=C3D3
6223, 215, 194, 188
*ELEMENT, TYPE=C3D3
6224, 188, 194, 169
*ELEMENT, TYPE=C3D3
6225, 188, 169, 164
*ELEMENT, TYPE=C3D3
6226, 991, 1028, 1050
*ELEMENT, TYPE=C3D3
6227, 1050, 1028, 1090
*ELEMENT, TYPE=C3D3
6228, 991, 1050, 1018
*ELEMENT, TYPE=C3D3
6229, 1090, 1028, 1064
*ELEMENT, TYPE=C3D3
6230, 1018, 1050, 1080
*ELEMENT, TYPE=C3D3
6231, 1018, 1080, 1044
*ELEMENT, TYPE=C3D3
6232, 675, 703, 726
*ELEMENT, TYPE=C3D3
6233, 726, 703, 756
*ELEMENT, TYPE=C3D3
6234, 675, 726, 696
*ELEMENT, TYPE=C3D3
6235, 756, 703, 742
*ELEMENT, TYPE=C3D3
6236, 726, 756, 778
*ELEMENT, TYPE=C3D3
6237, 696, 726, 745
*ELEMENT, TYPE=C3D3
6238, 742, 703, 692
*ELEMENT, TYPE=C3D3
6239, 756, 742, 792
*ELEMENT, TYPE=C3D3
6240, 778, 756, 809
*ELEMENT, TYPE=C3D3
6241, 745, 726, 778
*ELEMENT, TYPE=C3D3
6242, 742, 692, 727
*ELEMENT, TYPE=C3D3
6243, 792, 742, 777
*ELEMENT, TYPE=C3D3
6244, 809, 756, 792
*ELEMENT, TYPE=C3D3
6245, 727, 692, 677
*ELEMENT, TYPE=C3D3
6246, 742, 727, 777
*ELEMENT, TYPE=C3D3
6247, 677, 692, 644
*ELEMENT, TYPE=C3D3
6248, 777, 727, 760
*ELEMENT, TYPE=C3D3
6249, 677, 644, 629
*ELEMENT, TYPE=C3D3
6250, 760, 727, 710
*ELEMENT, TYPE=C3D3
6251, 777, 760, 812
*ELEMENT, TYPE=C3D3
6252, 629, 644, 597
*ELEMENT, TYPE=C3D3
6253, 677, 629, 664
*ELEMENT, TYPE=C3D3
6254, 710, 727, 677
*ELEMENT, TYPE=C3D3
6255, 812, 760, 798
*ELEMENT, TYPE=C3D3
6256, 710, 677, 664
*ELEMENT, TYPE=C3D3
6257, 798, 760, 750
*ELEMENT, TYPE=C3D3
6258, 812, 798, 853
*ELEMENT, TYPE=C3D3
6259, 710, 664, 701
*ELEMENT, TYPE=C3D3
6260, 750, 760, 710
*ELEMENT, TYPE=C3D3
6261, 853, 798, 839
*ELEMENT, TYPE=C3D3
6262, 701, 664, 654
*ELEMENT, TYPE=C3D3
6263, 750, 710, 701
*ELEMENT, TYPE=C3D3
6264, 839, 798, 788
*ELEMENT, TYPE=C3D3
6265, 853, 839, 892
*ELEMENT, TYPE=C3D3
6266, 750, 701, 738
*ELEMENT, TYPE=C3D3
6267, 788, 798, 750
*ELEMENT, TYPE=C3D3
6268, 892, 839, 882
*ELEMENT, TYPE=C3D3
6269, 853, 892, 908
*ELEMENT, TYPE=C3D3
6270, 738, 701, 691
*ELEMENT, TYPE=C3D3
6271, 882, 839, 830
*ELEMENT, TYPE=C3D3
6272, 892, 882, 937
*ELEMENT, TYPE=C3D3
6273, 908, 892, 947
*ELEMENT, TYPE=C3D3
6274, 738, 691, 732
*ELEMENT, TYPE=C3D3
6275, 830, 839, 788
*ELEMENT, TYPE=C3D3
6276, 947, 892, 937
*ELEMENT, TYPE=C3D3
6277, 738, 732, 779
*ELEMENT, TYPE=C3D3
6278, 830, 788, 779
*ELEMENT, TYPE=C3D3
6279, 779, 732, 773
*ELEMENT, TYPE=C3D3
6280, 779, 788, 738
*ELEMENT, TYPE=C3D3
6281, 773, 732, 723
*ELEMENT, TYPE=C3D3
6282, 738, 788, 750
*ELEMENT, TYPE=C3D3
6283, 723, 732, 683
*ELEMENT, TYPE=C3D3
6284, 683, 732, 691
*ELEMENT, TYPE=C3D3
6285, 971, 1032, 1006
*ELEMENT, TYPE=C3D3
6286, 1006, 1032, 1068
*ELEMENT, TYPE=C3D3
6287, 971, 1006, 946
*ELEMENT, TYPE=C3D3
6288, 1068, 1032, 1092
*ELEMENT, TYPE=C3D3
6289, 1006, 1068, 1042
*ELEMENT, TYPE=C3D3
6290, 946, 1006, 984
*ELEMENT, TYPE=C3D3
6291, 1092, 1032, 1055
*ELEMENT, TYPE=C3D3
6292, 1042, 1068, 1101
*ELEMENT, TYPE=C3D3
6293, 984, 1006, 1042
*ELEMENT, TYPE=C3D3
6294, 946, 984, 926
*ELEMENT, TYPE=C3D3
6295, 1042, 1101, 1084
*ELEMENT, TYPE=C3D3
6296, 926, 984, 965
*ELEMENT, TYPE=C3D3
6297, 1042, 1084, 1024
*ELEMENT, TYPE=C3D3
6298, 965, 984, 1024
*ELEMENT, TYPE=C3D3
6299, 926, 965, 907
*ELEMENT, TYPE=C3D3
6300, 1024, 1084, 1065
*ELEMENT, TYPE=C3D3
6301, 1024, 984, 1042
*ELEMENT, TYPE=C3D3
6302, 907, 965, 944
*ELEMENT, TYPE=C3D3
6303, 1024, 1065, 1004
*ELEMENT, TYPE=C3D3
6304, 907, 944, 889
*ELEMENT, TYPE=C3D3
6305, 1004, 1065, 1043
*ELEMENT, TYPE=C3D3
6306, 907, 889, 851
*ELEMENT, TYPE=C3D3
6307, 1043, 1065, 1102
*ELEMENT, TYPE=C3D3
6308, 907, 851, 870
*ELEMENT, TYPE=C3D3
6309, 1102, 1065, 1126
*ELEMENT, TYPE=C3D3
6310, 1043, 1102, 1091
*ELEMENT, TYPE=C3D3
6311, 870, 851, 814
*ELEMENT, TYPE=C3D3
6312, 1126, 1065, 1084
*ELEMENT, TYPE=C3D3
6313, 1043, 1091, 1031
*ELEMENT, TYPE=C3D3
6314, 814, 851, 797
*ELEMENT, TYPE=C3D3
6315, 1031, 1091, 1073
*ELEMENT, TYPE=C3D3
6316, 1073, 1091, 1135
*ELEMENT, TYPE=C3D3
6317, 1135, 1091, 1151
*ELEMENT, TYPE=C3D3
6318, 1073, 1135, 1122
*ELEMENT, TYPE=C3D3
6319, 1151, 1091, 1102
*ELEMENT, TYPE=C3D3
6320, 1073, 1122, 1060
*ELEMENT, TYPE=C3D3
6321, 965, 1024, 1004
*ELEMENT, TYPE=C3D3
6322, 1043, 1031, 985
*ELEMENT, TYPE=C3D3
6323, 1043, 985, 1004
*ELEMENT, TYPE=C3D3
6324, 1004, 985, 944
*ELEMENT, TYPE=C3D3
6325, 1004, 944, 965
*ELEMENT, TYPE=C3D3
6326, 1014, 1044, 1078
*ELEMENT, TYPE=C3D3
6327, 375, 373, 406
*ELEMENT, TYPE=C3D3
6328, 406, 373, 402
*ELEMENT, TYPE=C3D3
6329, 402, 373, 371
*ELEMENT, TYPE=C3D3
6330, 406, 402, 435
*ELEMENT, TYPE=C3D3
6331, 371, 373, 338
*ELEMENT, TYPE=C3D3
6332, 435, 402, 434
*ELEMENT, TYPE=C3D3
6333, 406, 435, 439
*ELEMENT, TYPE=C3D3
6334, 435, 434, 471
*ELEMENT, TYPE=C3D3
6335, 439, 435, 473
*ELEMENT, TYPE=C3D3
6336, 471, 434, 472
*ELEMENT, TYPE=C3D3
6337, 435, 471, 473
*ELEMENT, TYPE=C3D3
6338, 471, 472, 506
*ELEMENT, TYPE=C3D3
6339, 473, 471, 508
*ELEMENT, TYPE=C3D3
6340, 506, 472, 510
*ELEMENT, TYPE=C3D3
6341, 471, 506, 508
*ELEMENT, TYPE=C3D3
6342, 510, 472, 475
*ELEMENT, TYPE=C3D3
6343, 508, 506, 545
*ELEMENT, TYPE=C3D3
6344, 475, 472, 436
*ELEMENT, TYPE=C3D3
6345, 510, 475, 515
*ELEMENT, TYPE=C3D3
6346, 545, 506, 546
*ELEMENT, TYPE=C3D3
6347, 436, 472, 434
*ELEMENT, TYPE=C3D3
6348, 475, 436, 441
*ELEMENT, TYPE=C3D3
6349, 515, 475, 477
*ELEMENT, TYPE=C3D3
6350, 546, 506, 510
*ELEMENT, TYPE=C3D3
6351, 441, 436, 407
*ELEMENT, TYPE=C3D3
6352, 475, 441, 477
*ELEMENT, TYPE=C3D3
6353, 546, 510, 550
*ELEMENT, TYPE=C3D3
6354, 407, 436, 403
*ELEMENT, TYPE=C3D3
6355, 477, 441, 449
*ELEMENT, TYPE=C3D3
6356, 546, 550, 587
*ELEMENT, TYPE=C3D3
6357, 407, 403, 374
*ELEMENT, TYPE=C3D3
6358, 449, 441, 412
*ELEMENT, TYPE=C3D3
6359, 546, 587, 584
*ELEMENT, TYPE=C3D3
6360, 374, 403, 371
*ELEMENT, TYPE=C3D3
6361, 412, 441, 407
*ELEMENT, TYPE=C3D3
6362, 546, 584, 545
*ELEMENT, TYPE=C3D3
6363, 371, 403, 402
*ELEMENT, TYPE=C3D3
6364, 545, 584, 586
*ELEMENT, TYPE=C3D3
6365, 402, 403, 434
*ELEMENT, TYPE=C3D3
6366, 586, 584, 624
*ELEMENT, TYPE=C3D3
6367, 434, 403, 436
*ELEMENT, TYPE=C3D3
6368, 586, 624, 627
*ELEMENT, TYPE=C3D3
6369, 627, 624, 670
*ELEMENT, TYPE=C3D3
6370, 586, 627, 589
*ELEMENT, TYPE=C3D3
6371, 670, 624, 668
*ELEMENT, TYPE=C3D3
6372, 586, 589, 548
*ELEMENT, TYPE=C3D3
6373, 668, 624, 625
*ELEMENT, TYPE=C3D3
6374, 586, 548, 545
*ELEMENT, TYPE=C3D3
6375, 625, 624, 584
*ELEMENT, TYPE=C3D3
6376, 545, 548, 508
*ELEMENT, TYPE=C3D3
6377, 625, 584, 587
*ELEMENT, TYPE=C3D3
6378, 508, 548, 513
*ELEMENT, TYPE=C3D3
6379, 625, 587, 628
*ELEMENT, TYPE=C3D3
6380, 508, 513, 473
*ELEMENT, TYPE=C3D3
6381, 628, 587, 590
*ELEMENT, TYPE=C3D3
6382, 590, 587, 550
*ELEMENT, TYPE=C3D3
6383, 628, 590, 634
*ELEMENT, TYPE=C3D3
6384, 590, 550, 553
*ELEMENT, TYPE=C3D3
6385, 634, 590, 596
*ELEMENT, TYPE=C3D3
6386, 553, 550, 515
*ELEMENT, TYPE=C3D3
6387, 596, 590, 553
*ELEMENT, TYPE=C3D3
6388, 553, 515, 518
*ELEMENT, TYPE=C3D3
6389, 518, 515, 477
*ELEMENT, TYPE=C3D3
6390, 550, 510, 515
*ELEMENT, TYPE=C3D3
6391, 670, 668, 709
*ELEMENT, TYPE=C3D3
6392, 709, 668, 711
*ELEMENT, TYPE=C3D3
6393, 670, 709, 712
*ELEMENT, TYPE=C3D3
6394, 711, 668, 671
*ELEMENT, TYPE=C3D3
6395, 709, 711, 752
*ELEMENT, TYPE=C3D3
6396, 671, 668, 625
*ELEMENT, TYPE=C3D3
6397, 671, 625, 628
*ELEMENT, TYPE=C3D3
6398, 412, 407, 376
*ELEMENT, TYPE=C3D3
6399, 376, 407, 374
*ELEMENT, TYPE=C3D3
6400, 412, 376, 380
*ELEMENT, TYPE=C3D3
6401, 380, 376, 347
*ELEMENT, TYPE=C3D3
6402, 347, 376, 342
*ELEMENT, TYPE=C3D3
6403, 342, 376, 374
*ELEMENT, TYPE=C3D3
6404, 1264, 1278, 1327
*ELEMENT, TYPE=C3D3
6405, 1327, 1278, 1347
*ELEMENT, TYPE=C3D3
6406, 1347, 1278, 1297
*ELEMENT, TYPE=C3D3
6407, 1327, 1347, 1393
*ELEMENT, TYPE=C3D3
6408, 1297, 1278, 1232
*ELEMENT, TYPE=C3D3
6409, 1393, 1347, 1415
*ELEMENT, TYPE=C3D3
6410, 1297, 1232, 1256
*ELEMENT, TYPE=C3D3
6411, 1415, 1347, 1368
*ELEMENT, TYPE=C3D3
6412, 1393, 1415, 1463
*ELEMENT, TYPE=C3D3
6413, 1297, 1256, 1321
*ELEMENT, TYPE=C3D3
6414, 1368, 1347, 1297
*ELEMENT, TYPE=C3D3
6415, 1463, 1415, 1482
*ELEMENT, TYPE=C3D3
6416, 1321, 1256, 1274
*ELEMENT, TYPE=C3D3
6417, 1368, 1297, 1321
*ELEMENT, TYPE=C3D3
6418, 1482, 1415, 1435
*ELEMENT, TYPE=C3D3
6419, 1274, 1256, 1210
*ELEMENT, TYPE=C3D3
6420, 1435, 1415, 1368
*ELEMENT, TYPE=C3D3
6421, 1482, 1435, 1503
*ELEMENT, TYPE=C3D3
6422, 1274, 1210, 1234
*ELEMENT, TYPE=C3D3
6423, 1435, 1368, 1390
*ELEMENT, TYPE=C3D3
6424, 1503, 1435, 1457
*ELEMENT, TYPE=C3D3
6425, 1274, 1234, 1303
*ELEMENT, TYPE=C3D3
6426, 1390, 1368, 1321
*ELEMENT, TYPE=C3D3
6427, 1435, 1390, 1457
*ELEMENT, TYPE=C3D3
6428, 1303, 1234, 1262
*ELEMENT, TYPE=C3D3
6429, 1390, 1321, 1344
*ELEMENT, TYPE=C3D3
6430, 1457, 1390, 1414
*ELEMENT, TYPE=C3D3
6431, 1262, 1234, 1195
*ELEMENT, TYPE=C3D3
6432, 1303, 1262, 1328
*ELEMENT, TYPE=C3D3
6433, 1344, 1321, 1274
*ELEMENT, TYPE=C3D3
6434, 1414, 1390, 1344
*ELEMENT, TYPE=C3D3
6435, 1262, 1195, 1216
*ELEMENT, TYPE=C3D3
6436, 1328, 1262, 1287
*ELEMENT, TYPE=C3D3
6437, 1344, 1274, 1303
*ELEMENT, TYPE=C3D3
6438, 1414, 1344, 1371
*ELEMENT, TYPE=C3D3
6439, 1262, 1216, 1287
*ELEMENT, TYPE=C3D3
6440, 1371, 1344, 1303
*ELEMENT, TYPE=C3D3
6441, 1414, 1371, 1438
*ELEMENT, TYPE=C3D3
6442, 1287, 1216, 1250
*ELEMENT, TYPE=C3D3
6443, 1371, 1303, 1328
*ELEMENT, TYPE=C3D3
6444, 1438, 1371, 1394
*ELEMENT, TYPE=C3D3
6445, 1250, 1216, 1183
*ELEMENT, TYPE=C3D3
6446, 1287, 1250, 1317
*ELEMENT, TYPE=C3D3
6447, 1371, 1328, 1394
*ELEMENT, TYPE=C3D3
6448, 1250, 1183, 1211
*ELEMENT, TYPE=C3D3
6449, 1317, 1250, 1275
*ELEMENT, TYPE=C3D3
6450, 1394, 1328, 1356
*ELEMENT, TYPE=C3D3
6451, 1250, 1211, 1275
*ELEMENT, TYPE=C3D3
6452, 1317, 1275, 1348
*ELEMENT, TYPE=C3D3
6453, 1356, 1328, 1287
*ELEMENT, TYPE=C3D3
6454, 1275, 1211, 1242
*ELEMENT, TYPE=C3D3
6455, 1348, 1275, 1308
*ELEMENT, TYPE=C3D3
6456, 1317, 1348, 1384
*ELEMENT, TYPE=C3D3
6457, 1356, 1287, 1317
*ELEMENT, TYPE=C3D3
6458, 1308, 1275, 1242
*ELEMENT, TYPE=C3D3
6459, 1317, 1384, 1356
*ELEMENT, TYPE=C3D3
6460, 1308, 1242, 1270
*ELEMENT, TYPE=C3D3
6461, 1356, 1384, 1426
*ELEMENT, TYPE=C3D3
6462, 1270, 1242, 1205
*ELEMENT, TYPE=C3D3
6463, 1426, 1384, 1453
*ELEMENT, TYPE=C3D3
6464, 1205, 1242, 1175
*ELEMENT, TYPE=C3D3
6465, 1270, 1205, 1241
*ELEMENT, TYPE=C3D3
6466, 1453, 1384, 1418
*ELEMENT, TYPE=C3D3
6467, 1175, 1242, 1211
*ELEMENT, TYPE=C3D3
6468, 1241, 1205, 1174
*ELEMENT, TYPE=C3D3
6469, 1418, 1384, 1348
*ELEMENT, TYPE=C3D3
6470, 1241, 1174, 1208
*ELEMENT, TYPE=C3D3
6471, 1241, 1208, 1273
*ELEMENT, TYPE=C3D3
6472, 1273, 1208, 1245
*ELEMENT, TYPE=C3D3
6473, 1241, 1273, 1307
*ELEMENT, TYPE=C3D3
6474, 1245, 1208, 1180
*ELEMENT, TYPE=C3D3
6475, 1307, 1273, 1345
*ELEMENT, TYPE=C3D3
6476, 1241, 1307, 1270
*ELEMENT, TYPE=C3D3
6477, 1345, 1273, 1313
*ELEMENT, TYPE=C3D3
6478, 1307, 1345, 1378
*ELEMENT, TYPE=C3D3
6479, 1270, 1307, 1341
*ELEMENT, TYPE=C3D3
6480, 1313, 1273, 1245
*ELEMENT, TYPE=C3D3
6481, 1378, 1345, 1416
*ELEMENT, TYPE=C3D3
6482, 1341, 1307, 1378
*ELEMENT, TYPE=C3D3
6483, 1416, 1345, 1380
*ELEMENT, TYPE=C3D3
6484, 1378, 1416, 1443
*ELEMENT, TYPE=C3D3
6485, 1380, 1345, 1313
*ELEMENT, TYPE=C3D3
6486, 1416, 1380, 1447
*ELEMENT, TYPE=C3D3
6487, 1443, 1416, 1488
*ELEMENT, TYPE=C3D3
6488, 1380, 1313, 1352
*ELEMENT, TYPE=C3D3
6489, 1447, 1380, 1425
*ELEMENT, TYPE=C3D3
6490, 1488, 1416, 1447
*ELEMENT, TYPE=C3D3
6491, 1352, 1313, 1284
*ELEMENT, TYPE=C3D3
6492, 1425, 1380, 1352
*ELEMENT, TYPE=C3D3
6493, 1488, 1447, 1519
*ELEMENT, TYPE=C3D3
6494, 1284, 1313, 1245
*ELEMENT, TYPE=C3D3
6495, 1425, 1352, 1392
*ELEMENT, TYPE=C3D3
6496, 1519, 1447, 1494
*ELEMENT, TYPE=C3D3
6497, 1392, 1352, 1325
*ELEMENT, TYPE=C3D3
6498, 1425, 1392, 1464
*ELEMENT, TYPE=C3D3
6499, 1494, 1447, 1425
*ELEMENT, TYPE=C3D3
6500, 1325, 1352, 1284
*ELEMENT, TYPE=C3D3
6501, 1464, 1392, 1433
*ELEMENT, TYPE=C3D3
6502, 1325, 1284, 1258
*ELEMENT, TYPE=C3D3
6503, 1433, 1392, 1366
*ELEMENT, TYPE=C3D3
6504, 1258, 1284, 1214
*ELEMENT, TYPE=C3D3
6505, 1325, 1258, 1296
*ELEMENT, TYPE=C3D3
6506, 1366, 1392, 1325
*ELEMENT, TYPE=C3D3
6507, 1214, 1284, 1245
*ELEMENT, TYPE=C3D3
6508, 1296, 1258, 1228
*ELEMENT, TYPE=C3D3
6509, 1366, 1325, 1296
*ELEMENT, TYPE=C3D3
6510, 1228, 1258, 1192
*ELEMENT, TYPE=C3D3
6511, 1296, 1228, 1267
*ELEMENT, TYPE=C3D3
6512, 1192, 1258, 1214
*ELEMENT, TYPE=C3D3
6513, 1267, 1228, 1201
*ELEMENT, TYPE=C3D3
6514, 1267, 1201, 1249
*ELEMENT, TYPE=C3D3
6515, 1267, 1249, 1316
*ELEMENT, TYPE=C3D3
6516, 1316, 1249, 1291
*ELEMENT, TYPE=C3D3
6517, 1267, 1316, 1336
*ELEMENT, TYPE=C3D3
6518, 1291, 1249, 1225
*ELEMENT, TYPE=C3D3
6519, 1336, 1316, 1383
*ELEMENT, TYPE=C3D3
6520, 1383, 1316, 1361
*ELEMENT, TYPE=C3D3
6521, 1336, 1383, 1408
*ELEMENT, TYPE=C3D3
6522, 1361, 1316, 1291
*ELEMENT, TYPE=C3D3
6523, 1408, 1383, 1445
*ELEMENT, TYPE=C3D3
6524, 1336, 1408, 1366
*ELEMENT, TYPE=C3D3
6525, 1445, 1383, 1429
*ELEMENT, TYPE=C3D3
6526, 1408, 1445, 1479
*ELEMENT, TYPE=C3D3
6527, 1366, 1408, 1433
*ELEMENT, TYPE=C3D3
6528, 1429, 1383, 1361
*ELEMENT, TYPE=C3D3
6529, 1479, 1445, 1517
*ELEMENT, TYPE=C3D3
6530, 1433, 1408, 1479
*ELEMENT, TYPE=C3D3
6531, 1517, 1445, 1500
*ELEMENT, TYPE=C3D3
6532, 1433, 1479, 1504
*ELEMENT, TYPE=C3D3
6533, 1500, 1445, 1429
*ELEMENT, TYPE=C3D3
6534, 1517, 1500, 1560
*ELEMENT, TYPE=C3D3
6535, 1504, 1479, 1543
*ELEMENT, TYPE=C3D3
6536, 1560, 1500, 1541
*ELEMENT, TYPE=C3D3
6537, 1517, 1560, 1582
*ELEMENT, TYPE=C3D3
6538, 1543, 1479, 1517
*ELEMENT, TYPE=C3D3
6539, 1541, 1500, 1474
*ELEMENT, TYPE=C3D3
6540, 1582, 1560, 1620
*ELEMENT, TYPE=C3D3
6541, 1543, 1517, 1582
*ELEMENT, TYPE=C3D3
6542, 1474, 1500, 1429
*ELEMENT, TYPE=C3D3
6543, 1620, 1560, 1602
*ELEMENT, TYPE=C3D3
6544, 1474, 1429, 1406
*ELEMENT, TYPE=C3D3
6545, 1602, 1560, 1541
*ELEMENT, TYPE=C3D3
6546, 1406, 1429, 1361
*ELEMENT, TYPE=C3D3
6547, 1474, 1406, 1452
*ELEMENT, TYPE=C3D3
6548, 1406, 1361, 1335
*ELEMENT, TYPE=C3D3
6549, 1452, 1406, 1385
*ELEMENT, TYPE=C3D3
6550, 1335, 1361, 1291
*ELEMENT, TYPE=C3D3
6551, 1406, 1335, 1385
*ELEMENT, TYPE=C3D3
6552, 1385, 1335, 1320
*ELEMENT, TYPE=C3D3
6553, 1320, 1335, 1268
*ELEMENT, TYPE=C3D3
6554, 1385, 1320, 1369
*ELEMENT, TYPE=C3D3
6555, 1268, 1335, 1291
*ELEMENT, TYPE=C3D3
6556, 1320, 1268, 1255
*ELEMENT, TYPE=C3D3
6557, 1369, 1320, 1302
*ELEMENT, TYPE=C3D3
6558, 1268, 1291, 1225
*ELEMENT, TYPE=C3D3
6559, 1302, 1320, 1255
*ELEMENT, TYPE=C3D3
6560, 1369, 1302, 1351
*ELEMENT, TYPE=C3D3
6561, 1351, 1302, 1285
*ELEMENT, TYPE=C3D3
6562, 1369, 1351, 1420
*ELEMENT, TYPE=C3D3
6563, 1351, 1285, 1331
*ELEMENT, TYPE=C3D3
6564, 1420, 1351, 1401
*ELEMENT, TYPE=C3D3
6565, 1351, 1331, 1401
*ELEMENT, TYPE=C3D3
6566, 1401, 1331, 1387
*ELEMENT, TYPE=C3D3
6567, 1387, 1331, 1323
*ELEMENT, TYPE=C3D3
6568, 1401, 1387, 1450
*ELEMENT, TYPE=C3D3
6569, 1387, 1323, 1373
*ELEMENT, TYPE=C3D3
6570, 1450, 1387, 1439
*ELEMENT, TYPE=C3D3
6571, 1387, 1373, 1439
*ELEMENT, TYPE=C3D3
6572, 1439, 1373, 1430
*ELEMENT, TYPE=C3D3
6573, 1430, 1373, 1365
*ELEMENT, TYPE=C3D3
6574, 1439, 1430, 1497
*ELEMENT, TYPE=C3D3
6575, 1430, 1365, 1421
*ELEMENT, TYPE=C3D3
6576, 1497, 1430, 1486
*ELEMENT, TYPE=C3D3
6577, 1486, 1430, 1421
*ELEMENT, TYPE=C3D3
6578, 1497, 1486, 1546
*ELEMENT, TYPE=C3D3
6579, 1546, 1486, 1539
*ELEMENT, TYPE=C3D3
6580, 1497, 1546, 1555
*ELEMENT, TYPE=C3D3
6581, 1539, 1486, 1475
*ELEMENT, TYPE=C3D3
6582, 1555, 1546, 1604
*ELEMENT, TYPE=C3D3
6583, 1475, 1486, 1421
*ELEMENT, TYPE=C3D3
6584, 1539, 1475, 1533
*ELEMENT, TYPE=C3D3
6585, 1604, 1546, 1598
*ELEMENT, TYPE=C3D3
6586, 1539, 1533, 1590
*ELEMENT, TYPE=C3D3
6587, 1598, 1546, 1539
*ELEMENT, TYPE=C3D3
6588, 1604, 1598, 1655
*ELEMENT, TYPE=C3D3
6589, 1590, 1533, 1581
*ELEMENT, TYPE=C3D3
6590, 1655, 1598, 1644
*ELEMENT, TYPE=C3D3
6591, 1604, 1655, 1661
*ELEMENT, TYPE=C3D3
6592, 1581, 1533, 1525
*ELEMENT, TYPE=C3D3
6593, 1644, 1598, 1590
*ELEMENT, TYPE=C3D3
6594, 1661, 1655, 1710
*ELEMENT, TYPE=C3D3
6595, 1581, 1525, 1576
*ELEMENT, TYPE=C3D3
6596, 1590, 1598, 1539
*ELEMENT, TYPE=C3D3
6597, 1710, 1655, 1698
*ELEMENT, TYPE=C3D3
6598, 1698, 1655, 1644
*ELEMENT, TYPE=C3D3
6599, 1418, 1348, 1379
*ELEMENT, TYPE=C3D3
6600, 1379, 1348, 1308
*ELEMENT, TYPE=C3D3
6601, 1418, 1379, 1444
*ELEMENT, TYPE=C3D3
6602, 1379, 1308, 1341
*ELEMENT, TYPE=C3D3
6603, 1444, 1379, 1412
*ELEMENT, TYPE=C3D3
6604, 1341, 1308, 1270
*ELEMENT, TYPE=C3D3
6605, 1412, 1379, 1341
*ELEMENT, TYPE=C3D3
6606, 1412, 1341, 1378
*ELEMENT, TYPE=C3D3
6607, 1412, 1378, 1443
*ELEMENT, TYPE=C3D3
6608, 1412, 1443, 1484
*ELEMENT, TYPE=C3D3
6609, 1484, 1443, 1510
*ELEMENT, TYPE=C3D3
6610, 1510, 1443, 1488
*ELEMENT, TYPE=C3D3
6611, 1484, 1510, 1550
*ELEMENT, TYPE=C3D3
6612, 1510, 1488, 1552
*ELEMENT, TYPE=C3D3
6613, 1550, 1510, 1579
*ELEMENT, TYPE=C3D3
6614, 1552, 1488, 1519
*ELEMENT, TYPE=C3D3
6615, 1510, 1552, 1579
*ELEMENT, TYPE=C3D3
6616, 1552, 1519, 1586
*ELEMENT, TYPE=C3D3
6617, 1579, 1552, 1612
*ELEMENT, TYPE=C3D3
6618, 1586, 1519, 1557
*ELEMENT, TYPE=C3D3
6619, 1552, 1586, 1612
*ELEMENT, TYPE=C3D3
6620, 1557, 1519, 1494
*ELEMENT, TYPE=C3D3
6621, 1612, 1586, 1645
*ELEMENT, TYPE=C3D3
6622, 1557, 1494, 1532
*ELEMENT, TYPE=C3D3
6623, 1645, 1586, 1618
*ELEMENT, TYPE=C3D3
6624, 1532, 1494, 1464
*ELEMENT, TYPE=C3D3
6625, 1557, 1532, 1596
*ELEMENT, TYPE=C3D3
6626, 1618, 1586, 1557
*ELEMENT, TYPE=C3D3
6627, 1464, 1494, 1425
*ELEMENT, TYPE=C3D3
6628, 1596, 1532, 1566
*ELEMENT, TYPE=C3D3
6629, 1618, 1557, 1596
*ELEMENT, TYPE=C3D3
6630, 1566, 1532, 1504
*ELEMENT, TYPE=C3D3
6631, 1618, 1596, 1657
*ELEMENT, TYPE=C3D3
6632, 1504, 1532, 1464
*ELEMENT, TYPE=C3D3
6633, 1566, 1504, 1543
*ELEMENT, TYPE=C3D3
6634, 1657, 1596, 1628
*ELEMENT, TYPE=C3D3
6635, 1504, 1464, 1433
*ELEMENT, TYPE=C3D3
6636, 1566, 1543, 1605
*ELEMENT, TYPE=C3D3
6637, 1628, 1596, 1566
*ELEMENT, TYPE=C3D3
6638, 1605, 1543, 1582
*ELEMENT, TYPE=C3D3
6639, 1628, 1566, 1605
*ELEMENT, TYPE=C3D3
6640, 1605, 1582, 1642
*ELEMENT, TYPE=C3D3
6641, 1628, 1605, 1664
*ELEMENT, TYPE=C3D3
6642, 1642, 1582, 1620
*ELEMENT, TYPE=C3D3
6643, 1605, 1642, 1664
*ELEMENT, TYPE=C3D3
6644, 1642, 1620, 1681
*ELEMENT, TYPE=C3D3
6645, 1664, 1642, 1702
*ELEMENT, TYPE=C3D3
6646, 1681, 1620, 1662
*ELEMENT, TYPE=C3D3
6647, 1642, 1681, 1702
*ELEMENT, TYPE=C3D3
6648, 1662, 1620, 1602
*ELEMENT, TYPE=C3D3
6649, 1702, 1681, 1739
*ELEMENT, TYPE=C3D3
6650, 1662, 1602, 1641
*ELEMENT, TYPE=C3D3
6651, 1739, 1681, 1719
*ELEMENT, TYPE=C3D3
6652, 1641, 1602, 1584
*ELEMENT, TYPE=C3D3
6653, 1662, 1641, 1700
*ELEMENT, TYPE=C3D3
6654, 1719, 1681, 1662
*ELEMENT, TYPE=C3D3
6655, 1584, 1602, 1541
*ELEMENT, TYPE=C3D3
6656, 1700, 1641, 1684
*ELEMENT, TYPE=C3D3
6657, 1719, 1662, 1700
*ELEMENT, TYPE=C3D3
6658, 1584, 1541, 1518
*ELEMENT, TYPE=C3D3
6659, 1684, 1641, 1622
*ELEMENT, TYPE=C3D3
6660, 1719, 1700, 1756
*ELEMENT, TYPE=C3D3
6661, 1518, 1541, 1474
*ELEMENT, TYPE=C3D3
6662, 1622, 1641, 1584
*ELEMENT, TYPE=C3D3
6663, 1756, 1700, 1742
*ELEMENT, TYPE=C3D3
6664, 1622, 1584, 1561
*ELEMENT, TYPE=C3D3
6665, 1742, 1700, 1684
*ELEMENT, TYPE=C3D3
6666, 1561, 1584, 1518
*ELEMENT, TYPE=C3D3
6667, 1622, 1561, 1609
*ELEMENT, TYPE=C3D3
6668, 1742, 1684, 1722
*ELEMENT, TYPE=C3D3
6669, 1561, 1518, 1502
*ELEMENT, TYPE=C3D3
6670, 1609, 1561, 1549
*ELEMENT, TYPE=C3D3
6671, 1722, 1684, 1665
*ELEMENT, TYPE=C3D3
6672, 1502, 1518, 1452
*ELEMENT, TYPE=C3D3
6673, 1549, 1561, 1502
*ELEMENT, TYPE=C3D3
6674, 1665, 1684, 1622
*ELEMENT, TYPE=C3D3
6675, 1452, 1518, 1474
*ELEMENT, TYPE=C3D3
6676, 1665, 1622, 1609
*ELEMENT, TYPE=C3D3
6677, 1665, 1609, 1656
*ELEMENT, TYPE=C3D3
6678, 1656, 1609, 1597
*ELEMENT, TYPE=C3D3
6679, 1597, 1609, 1549
*ELEMENT, TYPE=C3D3
6680, 1656, 1597, 1637
*ELEMENT, TYPE=C3D3
6681, 1637, 1597, 1578
*ELEMENT, TYPE=C3D3
6682, 1656, 1637, 1694
*ELEMENT, TYPE=C3D3
6683, 1578, 1597, 1535
*ELEMENT, TYPE=C3D3
6684, 1694, 1637, 1682
*ELEMENT, TYPE=C3D3
6685, 1535, 1597, 1549
*ELEMENT, TYPE=C3D3
6686, 1682, 1637, 1623
*ELEMENT, TYPE=C3D3
6687, 1694, 1682, 1738
*ELEMENT, TYPE=C3D3
6688, 1623, 1637, 1578
*ELEMENT, TYPE=C3D3
6689, 1682, 1623, 1668
*ELEMENT, TYPE=C3D3
6690, 1738, 1682, 1725
*ELEMENT, TYPE=C3D3
6691, 1623, 1578, 1565
*ELEMENT, TYPE=C3D3
6692, 1668, 1623, 1613
*ELEMENT, TYPE=C3D3
6693, 1725, 1682, 1668
*ELEMENT, TYPE=C3D3
6694, 1565, 1578, 1514
*ELEMENT, TYPE=C3D3
6695, 1613, 1623, 1565
*ELEMENT, TYPE=C3D3
6696, 1514, 1578, 1535
*ELEMENT, TYPE=C3D3
6697, 1565, 1514, 1505
*ELEMENT, TYPE=C3D3
6698, 1514, 1535, 1470
*ELEMENT, TYPE=C3D3
6699, 1505, 1514, 1450
*ELEMENT, TYPE=C3D3
6700, 1470, 1535, 1489
*ELEMENT, TYPE=C3D3
6701, 1514, 1470, 1450
*ELEMENT, TYPE=C3D3
6702, 1489, 1535, 1549
*ELEMENT, TYPE=C3D3
6703, 1450, 1470, 1401
*ELEMENT, TYPE=C3D3
6704, 1489, 1549, 1502
*ELEMENT, TYPE=C3D3
6705, 1401, 1470, 1420
*ELEMENT, TYPE=C3D3
6706, 1489, 1502, 1434
*ELEMENT, TYPE=C3D3
6707, 1420, 1470, 1489
*ELEMENT, TYPE=C3D3
6708, 1434, 1502, 1452
*ELEMENT, TYPE=C3D3
6709, 1434, 1452, 1385
*ELEMENT, TYPE=C3D3
6710, 1434, 1385, 1369
*ELEMENT, TYPE=C3D3
6711, 1434, 1369, 1420
*ELEMENT, TYPE=C3D3
6712, 1434, 1420, 1489
*ELEMENT, TYPE=C3D3
6713, 1214, 1245, 1180
*ELEMENT, TYPE=C3D3
6714, 1418, 1444, 1491
*ELEMENT, TYPE=C3D3
6715, 1491, 1444, 1512
*ELEMENT, TYPE=C3D3
6716, 1418, 1491, 1453
*ELEMENT, TYPE=C3D3
6717, 1512, 1444, 1484
*ELEMENT, TYPE=C3D3
6718, 1491, 1512, 1553
*ELEMENT, TYPE=C3D3
6719, 1453, 1491, 1524
*ELEMENT, TYPE=C3D3
6720, 1484, 1444, 1412
*ELEMENT, TYPE=C3D3
6721, 1512, 1484, 1550
*ELEMENT, TYPE=C3D3
6722, 1553, 1512, 1580
*ELEMENT, TYPE=C3D3
6723, 1524, 1491, 1553
*ELEMENT, TYPE=C3D3
6724, 1512, 1550, 1580
*ELEMENT, TYPE=C3D3
6725, 1524, 1553, 1588
*ELEMENT, TYPE=C3D3
6726, 1580, 1550, 1611
*ELEMENT, TYPE=C3D3
6727, 1588, 1553, 1614
*ELEMENT, TYPE=C3D3
6728, 1524, 1588, 1559
*ELEMENT, TYPE=C3D3
6729, 1611, 1550, 1579
*ELEMENT, TYPE=C3D3
6730, 1614, 1553, 1580
*ELEMENT, TYPE=C3D3
6731, 1588, 1614, 1649
*ELEMENT, TYPE=C3D3
6732, 1559, 1588, 1619
*ELEMENT, TYPE=C3D3
6733, 1611, 1579, 1639
*ELEMENT, TYPE=C3D3
6734, 1649, 1614, 1673
*ELEMENT, TYPE=C3D3
6735, 1588, 1649, 1619
*ELEMENT, TYPE=C3D3
6736, 1639, 1579, 1612
*ELEMENT, TYPE=C3D3
6737, 1673, 1614, 1640
*ELEMENT, TYPE=C3D3
6738, 1619, 1649, 1680
*ELEMENT, TYPE=C3D3
6739, 1639, 1612, 1671
*ELEMENT, TYPE=C3D3
6740, 1640, 1614, 1580
*ELEMENT, TYPE=C3D3
6741, 1673, 1640, 1703
*ELEMENT, TYPE=C3D3
6742, 1680, 1649, 1709
*ELEMENT, TYPE=C3D3
6743, 1671, 1612, 1645
*ELEMENT, TYPE=C3D3
6744, 1703, 1640, 1670
*ELEMENT, TYPE=C3D3
6745, 1673, 1703, 1733
*ELEMENT, TYPE=C3D3
6746, 1709, 1649, 1673
*ELEMENT, TYPE=C3D3
6747, 1671, 1645, 1706
*ELEMENT, TYPE=C3D3
6748, 1670, 1640, 1611
*ELEMENT, TYPE=C3D3
6749, 1733, 1703, 1760
*ELEMENT, TYPE=C3D3
6750, 1706, 1645, 1675
*ELEMENT, TYPE=C3D3
6751, 1671, 1706, 1731
*ELEMENT, TYPE=C3D3
6752, 1611, 1640, 1580
*ELEMENT, TYPE=C3D3
6753, 1760, 1703, 1728
*ELEMENT, TYPE=C3D3
6754, 1675, 1645, 1618
*ELEMENT, TYPE=C3D3
6755, 1731, 1706, 1762
*ELEMENT, TYPE=C3D3
6756, 1728, 1703, 1670
*ELEMENT, TYPE=C3D3
6757, 1675, 1618, 1657
*ELEMENT, TYPE=C3D3
6758, 1762, 1706, 1737
*ELEMENT, TYPE=C3D3
6759, 1728, 1670, 1701
*ELEMENT, TYPE=C3D3
6760, 1675, 1657, 1714
*ELEMENT, TYPE=C3D3
6761, 1737, 1706, 1675
*ELEMENT, TYPE=C3D3
6762, 1701, 1670, 1639
*ELEMENT, TYPE=C3D3
6763, 1728, 1701, 1759
*ELEMENT, TYPE=C3D3
6764, 1714, 1657, 1687
*ELEMENT, TYPE=C3D3
6765, 1737, 1675, 1714
*ELEMENT, TYPE=C3D3
6766, 1759, 1701, 1731
*ELEMENT, TYPE=C3D3
6767, 1714, 1687, 1745
*ELEMENT, TYPE=C3D3
6768, 1731, 1701, 1671
*ELEMENT, TYPE=C3D3
6769, 1759, 1731, 1788
*ELEMENT, TYPE=C3D3
6770, 1745, 1687, 1721
*ELEMENT, TYPE=C3D3
6771, 1671, 1701, 1639
*ELEMENT, TYPE=C3D3
6772, 1788, 1731, 1762
*ELEMENT, TYPE=C3D3
6773, 1721, 1687, 1664
*ELEMENT, TYPE=C3D3
6774, 1788, 1762, 1819
*ELEMENT, TYPE=C3D3
6775, 1664, 1687, 1628
*ELEMENT, TYPE=C3D3
6776, 1819, 1762, 1794
*ELEMENT, TYPE=C3D3
6777, 1628, 1687, 1657
*ELEMENT, TYPE=C3D3
6778, 1794, 1762, 1737
*ELEMENT, TYPE=C3D3
6779, 1794, 1737, 1769
*ELEMENT, TYPE=C3D3
6780, 1769, 1737, 1714
*ELEMENT, TYPE=C3D3
6781, 1794, 1769, 1826
*ELEMENT, TYPE=C3D3
6782, 1769, 1714, 1745
*ELEMENT, TYPE=C3D3
6783, 1826, 1769, 1805
*ELEMENT, TYPE=C3D3
6784, 1769, 1745, 1805
*ELEMENT, TYPE=C3D3
6785, 1805, 1745, 1779
*ELEMENT, TYPE=C3D3
6786, 1779, 1745, 1721
*ELEMENT, TYPE=C3D3
6787, 1805, 1779, 1836
*ELEMENT, TYPE=C3D3
6788, 1779, 1721, 1758
*ELEMENT, TYPE=C3D3
6789, 1836, 1779, 1814
*ELEMENT, TYPE=C3D3
6790, 1758, 1721, 1702
*ELEMENT, TYPE=C3D3
6791, 1779, 1758, 1814
*ELEMENT, TYPE=C3D3
6792, 1702, 1721, 1664
*ELEMENT, TYPE=C3D3
6793, 1814, 1758, 1795
*ELEMENT, TYPE=C3D3
6794, 1795, 1758, 1739
*ELEMENT, TYPE=C3D3
6795, 1814, 1795, 1852
*ELEMENT, TYPE=C3D3
6796, 1739, 1758, 1702
*ELEMENT, TYPE=C3D3
6797, 1852, 1795, 1831
*ELEMENT, TYPE=C3D3
6798, 1831, 1795, 1775
*ELEMENT, TYPE=C3D3
6799, 1852, 1831, 1886
*ELEMENT, TYPE=C3D3
6800, 1775, 1795, 1739
*ELEMENT, TYPE=C3D3
6801, 1831, 1775, 1811
*ELEMENT, TYPE=C3D3
6802, 1886, 1831, 1868
*ELEMENT, TYPE=C3D3
6803, 1775, 1739, 1719
*ELEMENT, TYPE=C3D3
6804, 1811, 1775, 1756
*ELEMENT, TYPE=C3D3
6805, 1868, 1831, 1811
*ELEMENT, TYPE=C3D3
6806, 1756, 1775, 1719
*ELEMENT, TYPE=C3D3
6807, 1811, 1756, 1797
*ELEMENT, TYPE=C3D3
6808, 1797, 1756, 1742
*ELEMENT, TYPE=C3D3
6809, 1811, 1797, 1853
*ELEMENT, TYPE=C3D3
6810, 1797, 1742, 1778
*ELEMENT, TYPE=C3D3
6811, 1853, 1797, 1834
*ELEMENT, TYPE=C3D3
6812, 1778, 1742, 1722
*ELEMENT, TYPE=C3D3
6813, 1834, 1797, 1778
*ELEMENT, TYPE=C3D3
6814, 1778, 1722, 1768
*ELEMENT, TYPE=C3D3
6815, 1834, 1778, 1820
*ELEMENT, TYPE=C3D3
6816, 1768, 1722, 1712
*ELEMENT, TYPE=C3D3
6817, 1778, 1768, 1820
*ELEMENT, TYPE=C3D3
6818, 1712, 1722, 1665
*ELEMENT, TYPE=C3D3
6819, 1820, 1768, 1808
*ELEMENT, TYPE=C3D3
6820, 1712, 1665, 1656
*ELEMENT, TYPE=C3D3
6821, 1808, 1768, 1752
*ELEMENT, TYPE=C3D3
6822, 1712, 1656, 1694
*ELEMENT, TYPE=C3D3
6823, 1752, 1768, 1712
*ELEMENT, TYPE=C3D3
6824, 1712, 1694, 1752
*ELEMENT, TYPE=C3D3
6825, 1752, 1694, 1738
*ELEMENT, TYPE=C3D3
6826, 1752, 1738, 1792
*ELEMENT, TYPE=C3D3
6827, 1792, 1738, 1780
*ELEMENT, TYPE=C3D3
6828, 1752, 1792, 1808
*ELEMENT, TYPE=C3D3
6829, 1780, 1738, 1725
*ELEMENT, TYPE=C3D3
6830, 1792, 1780, 1833
*ELEMENT, TYPE=C3D3
6831, 1808, 1792, 1847
*ELEMENT, TYPE=C3D3
6832, 1833, 1780, 1824
*ELEMENT, TYPE=C3D3
6833, 1847, 1792, 1833
*ELEMENT, TYPE=C3D3
6834, 1808, 1847, 1862
*ELEMENT, TYPE=C3D3
6835, 1824, 1780, 1770
*ELEMENT, TYPE=C3D3
6836, 1847, 1833, 1887
*ELEMENT, TYPE=C3D3
6837, 1862, 1847, 1899
*ELEMENT, TYPE=C3D3
6838, 1770, 1780, 1725
*ELEMENT, TYPE=C3D3
6839, 1887, 1833, 1877
*ELEMENT, TYPE=C3D3
6840, 1899, 1847, 1887
*ELEMENT, TYPE=C3D3
6841, 1877, 1833, 1824
*ELEMENT, TYPE=C3D3
6842, 1887, 1877, 1929
*ELEMENT, TYPE=C3D3
6843, 1899, 1887, 1940
*ELEMENT, TYPE=C3D3
6844, 1877, 1824, 1865
*ELEMENT, TYPE=C3D3
6845, 1929, 1877, 1919
*ELEMENT, TYPE=C3D3
6846, 1940, 1887, 1929
*ELEMENT, TYPE=C3D3
6847, 1865, 1824, 1813
*ELEMENT, TYPE=C3D3
6848, 1919, 1877, 1865
*ELEMENT, TYPE=C3D3
6849, 1940, 1929, 1979
*ELEMENT, TYPE=C3D3
6850, 1813, 1824, 1770
*ELEMENT, TYPE=C3D3
6851, 1919, 1865, 1911
*ELEMENT, TYPE=C3D3
6852, 1979, 1929, 1970
*ELEMENT, TYPE=C3D3
6853, 1813, 1770, 1761
*ELEMENT, TYPE=C3D3
6854, 1911, 1865, 1860
*ELEMENT, TYPE=C3D3
6855, 1970, 1929, 1919
*ELEMENT, TYPE=C3D3
6856, 1761, 1770, 1716
*ELEMENT, TYPE=C3D3
6857, 1860, 1865, 1813
*ELEMENT, TYPE=C3D3
6858, 1716, 1770, 1725
*ELEMENT, TYPE=C3D3
6859, 1761, 1716, 1710
*ELEMENT, TYPE=C3D3
6860, 1860, 1813, 1807
*ELEMENT, TYPE=C3D3
6861, 1710, 1716, 1661
*ELEMENT, TYPE=C3D3
6862, 1761, 1710, 1754
*ELEMENT, TYPE=C3D3
6863, 1807, 1813, 1761
*ELEMENT, TYPE=C3D3
6864, 1661, 1716, 1668
*ELEMENT, TYPE=C3D3
6865, 1754, 1710, 1698
*ELEMENT, TYPE=C3D3
6866, 1668, 1716, 1725
*ELEMENT, TYPE=C3D3
6867, 1661, 1668, 1613
*ELEMENT, TYPE=C3D3
6868, 1661, 1613, 1604
*ELEMENT, TYPE=C3D3
6869, 1604, 1613, 1555
*ELEMENT, TYPE=C3D3
6870, 1555, 1613, 1565
*ELEMENT, TYPE=C3D3
6871, 1555, 1565, 1505
*ELEMENT, TYPE=C3D3
6872, 1555, 1505, 1497
*ELEMENT, TYPE=C3D3
6873, 1497, 1505, 1439
*ELEMENT, TYPE=C3D3
6874, 1439, 1505, 1450
*ELEMENT, TYPE=C3D3
6875, 1639, 1670, 1611
*ELEMENT, TYPE=C3D3
6876, 1794, 1826, 1851
*ELEMENT, TYPE=C3D3
6877, 1851, 1826, 1881
*ELEMENT, TYPE=C3D3
6878, 1794, 1851, 1819
*ELEMENT, TYPE=C3D3
6879, 1881, 1826, 1861
*ELEMENT, TYPE=C3D3
6880, 1851, 1881, 1908
*ELEMENT, TYPE=C3D3
6881, 1819, 1851, 1875
*ELEMENT, TYPE=C3D3
6882, 1861, 1826, 1805
*ELEMENT, TYPE=C3D3
6883, 1881, 1861, 1916
*ELEMENT, TYPE=C3D3
6884, 1908, 1881, 1935
*ELEMENT, TYPE=C3D3
6885, 1875, 1851, 1908
*ELEMENT, TYPE=C3D3
6886, 1861, 1805, 1836
*ELEMENT, TYPE=C3D3
6887, 1916, 1861, 1892
*ELEMENT, TYPE=C3D3
6888, 1935, 1881, 1916
*ELEMENT, TYPE=C3D3
6889, 1875, 1908, 1931
*ELEMENT, TYPE=C3D3
6890, 1861, 1836, 1892
*ELEMENT, TYPE=C3D3
6891, 1935, 1916, 1969
*ELEMENT, TYPE=C3D3
6892, 1931, 1908, 1963
*ELEMENT, TYPE=C3D3
6893, 1892, 1836, 1869
*ELEMENT, TYPE=C3D3
6894, 1969, 1916, 1948
*ELEMENT, TYPE=C3D3
6895, 1935, 1969, 1992
*ELEMENT, TYPE=C3D3
6896, 1869, 1836, 1814
*ELEMENT, TYPE=C3D3
6897, 1969, 1948, 2002
*ELEMENT, TYPE=C3D3
6898, 1992, 1969, 2024
*ELEMENT, TYPE=C3D3
6899, 1869, 1814, 1852
*ELEMENT, TYPE=C3D3
6900, 2002, 1948, 1977
*ELEMENT, TYPE=C3D3
6901, 2024, 1969, 2002
*ELEMENT, TYPE=C3D3
6902, 1869, 1852, 1907
*ELEMENT, TYPE=C3D3
6903, 1977, 1948, 1923
*ELEMENT, TYPE=C3D3
6904, 1907, 1852, 1886
*ELEMENT, TYPE=C3D3
6905, 1869, 1907, 1923
*ELEMENT, TYPE=C3D3
6906, 1923, 1948, 1892
*ELEMENT, TYPE=C3D3
6907, 1907, 1886, 1941
*ELEMENT, TYPE=C3D3
6908, 1923, 1907, 1960
*ELEMENT, TYPE=C3D3
6909, 1892, 1948, 1916
*ELEMENT, TYPE=C3D3
6910, 1941, 1886, 1922
*ELEMENT, TYPE=C3D3
6911, 1960, 1907, 1941
*ELEMENT, TYPE=C3D3
6912, 1922, 1886, 1868
*ELEMENT, TYPE=C3D3
6913, 1960, 1941, 1996
*ELEMENT, TYPE=C3D3
6914, 1922, 1868, 1906
*ELEMENT, TYPE=C3D3
6915, 1996, 1941, 1974
*ELEMENT, TYPE=C3D3
6916, 1960, 1996, 2016
*ELEMENT, TYPE=C3D3
6917, 1906, 1868, 1853
*ELEMENT, TYPE=C3D3
6918, 1974, 1941, 1922
*ELEMENT, TYPE=C3D3
6919, 2016, 1996, 2049
*ELEMENT, TYPE=C3D3
6920, 1853, 1868, 1811
*ELEMENT, TYPE=C3D3
6921, 2049, 1996, 2027
*ELEMENT, TYPE=C3D3
6922, 2016, 2049, 2066
*ELEMENT, TYPE=C3D3
6923, 2027, 1996, 1974
*ELEMENT, TYPE=C3D3
6924, 2066, 2049, 2101
*ELEMENT, TYPE=C3D3
6925, 2027, 1974, 2014
*ELEMENT, TYPE=C3D3
6926, 2101, 2049, 2082
*ELEMENT, TYPE=C3D3
6927, 2066, 2101, 2119
*ELEMENT, TYPE=C3D3
6928, 2014, 1974, 1959
*ELEMENT, TYPE=C3D3
6929, 2082, 2049, 2027
*ELEMENT, TYPE=C3D3
6930, 2119, 2101, 2154
*ELEMENT, TYPE=C3D3
6931, 1959, 1974, 1922
*ELEMENT, TYPE=C3D3
6932, 2154, 2101, 2135
*ELEMENT, TYPE=C3D3
6933, 2119, 2154, 2171
*ELEMENT, TYPE=C3D3
6934, 2135, 2101, 2082
*ELEMENT, TYPE=C3D3
6935, 2154, 2135, 2188
*ELEMENT, TYPE=C3D3
6936, 2171, 2154, 2207
*ELEMENT, TYPE=C3D3
6937, 2188, 2135, 2165
*ELEMENT, TYPE=C3D3
6938, 2154, 2188, 2207
*ELEMENT, TYPE=C3D3
6939, 2165, 2135, 2116
*ELEMENT, TYPE=C3D3
6940, 2207, 2188, 2239
*ELEMENT, TYPE=C3D3
6941, 2116, 2135, 2082
*ELEMENT, TYPE=C3D3
6942, 2165, 2116, 2153
*ELEMENT, TYPE=C3D3
6943, 2239, 2188, 2220
*ELEMENT, TYPE=C3D3
6944, 2153, 2116, 2102
*ELEMENT, TYPE=C3D3
6945, 2165, 2153, 2205
*ELEMENT, TYPE=C3D3
6946, 2220, 2188, 2165
*ELEMENT, TYPE=C3D3
6947, 2102, 2116, 2064
*ELEMENT, TYPE=C3D3
6948, 2205, 2153, 2189
*ELEMENT, TYPE=C3D3
6949, 2220, 2165, 2205
*ELEMENT, TYPE=C3D3
6950, 2064, 2116, 2082
*ELEMENT, TYPE=C3D3
6951, 2189, 2153, 2137
*ELEMENT, TYPE=C3D3
6952, 2064, 2082, 2027
*ELEMENT, TYPE=C3D3
6953, 2137, 2153, 2102
*ELEMENT, TYPE=C3D3
6954, 2064, 2027, 2014
*ELEMENT, TYPE=C3D3
6955, 2137, 2102, 2085
*ELEMENT, TYPE=C3D3
6956, 2064, 2014, 2050
*ELEMENT, TYPE=C3D3
6957, 2085, 2102, 2050
*ELEMENT, TYPE=C3D3
6958, 2050, 2014, 1998
*ELEMENT, TYPE=C3D3
6959, 2050, 2102, 2064
*ELEMENT, TYPE=C3D3
6960, 1998, 2014, 1959
*ELEMENT, TYPE=C3D3
6961, 2050, 1998, 2030
*ELEMENT, TYPE=C3D3
6962, 1998, 1959, 1943
*ELEMENT, TYPE=C3D3
6963, 2030, 1998, 1978
*ELEMENT, TYPE=C3D3
6964, 2050, 2030, 2085
*ELEMENT, TYPE=C3D3
6965, 1943, 1959, 1906
*ELEMENT, TYPE=C3D3
6966, 1978, 1998, 1943
*ELEMENT, TYPE=C3D3
6967, 2085, 2030, 2069
*ELEMENT, TYPE=C3D3
6968, 1906, 1959, 1922
*ELEMENT, TYPE=C3D3
6969, 1978, 1943, 1924
*ELEMENT, TYPE=C3D3
6970, 2069, 2030, 2021
*ELEMENT, TYPE=C3D3
6971, 1924, 1943, 1888
*ELEMENT, TYPE=C3D3
6972, 2021, 2030, 1978
*ELEMENT, TYPE=C3D3
6973, 2069, 2021, 2058
*ELEMENT, TYPE=C3D3
6974, 1888, 1943, 1906
*ELEMENT, TYPE=C3D3
6975, 2021, 1978, 1968
*ELEMENT, TYPE=C3D3
6976, 2058, 2021, 2005
*ELEMENT, TYPE=C3D3
6977, 1888, 1906, 1853
*ELEMENT, TYPE=C3D3
6978, 1968, 1978, 1924
*ELEMENT, TYPE=C3D3
6979, 2005, 2021, 1968
*ELEMENT, TYPE=C3D3
6980, 1968, 1924, 1915
*ELEMENT, TYPE=C3D3
6981, 2005, 1968, 1954
*ELEMENT, TYPE=C3D3
6982, 1915, 1924, 1873
*ELEMENT, TYPE=C3D3
6983, 1954, 1968, 1915
*ELEMENT, TYPE=C3D3
6984, 1873, 1924, 1888
*ELEMENT, TYPE=C3D3
6985, 1915, 1873, 1862
*ELEMENT, TYPE=C3D3
6986, 1873, 1888, 1834
*ELEMENT, TYPE=C3D3
6987, 1862, 1873, 1820
*ELEMENT, TYPE=C3D3
6988, 1834, 1888, 1853
*ELEMENT, TYPE=C3D3
6989, 1873, 1834, 1820
*ELEMENT, TYPE=C3D3
6990, 1963, 1908, 1935
*ELEMENT, TYPE=C3D3
6991, 1963, 1935, 1992
*ELEMENT, TYPE=C3D3
6992, 1963, 1992, 2017
*ELEMENT, TYPE=C3D3
6993, 2017, 1992, 2047
*ELEMENT, TYPE=C3D3
6994, 1963, 2017, 1984
*ELEMENT, TYPE=C3D3
6995, 2047, 1992, 2024
*ELEMENT, TYPE=C3D3
6996, 1984, 2017, 2040
*ELEMENT, TYPE=C3D3
6997, 1963, 1984, 1931
*ELEMENT, TYPE=C3D3
6998, 2040, 2017, 2067
*ELEMENT, TYPE=C3D3
6999, 1984, 2040, 2010
*ELEMENT, TYPE=C3D3
7000, 1931, 1984, 1957
*ELEMENT, TYPE=C3D3
7001, 2040, 2067, 2095
*ELEMENT, TYPE=C3D3
7002, 2010, 2040, 2063
*ELEMENT, TYPE=C3D3
7003, 1957, 1984, 2010
*ELEMENT, TYPE=C3D3
7004, 2095, 2067, 2121
*ELEMENT, TYPE=C3D3
7005, 2063, 2040, 2095
*ELEMENT, TYPE=C3D3
7006, 1957, 2010, 1981
*ELEMENT, TYPE=C3D3
7007, 2121, 2067, 2100
*ELEMENT, TYPE=C3D3
7008, 1981, 2010, 2035
*ELEMENT, TYPE=C3D3
7009, 1957, 1981, 1926
*ELEMENT, TYPE=C3D3
7010, 2100, 2067, 2047
*ELEMENT, TYPE=C3D3
7011, 2035, 2010, 2063
*ELEMENT, TYPE=C3D3
7012, 1926, 1981, 1955
*ELEMENT, TYPE=C3D3
7013, 2047, 2067, 2017
*ELEMENT, TYPE=C3D3
7014, 1955, 1981, 2009
*ELEMENT, TYPE=C3D3
7015, 1926, 1955, 1901
*ELEMENT, TYPE=C3D3
7016, 2009, 1981, 2035
*ELEMENT, TYPE=C3D3
7017, 1901, 1955, 1928
*ELEMENT, TYPE=C3D3
7018, 1926, 1901, 1870
*ELEMENT, TYPE=C3D3
7019, 2009, 2035, 2061
*ELEMENT, TYPE=C3D3
7020, 1928, 1955, 1982
*ELEMENT, TYPE=C3D3
7021, 1870, 1901, 1844
*ELEMENT, TYPE=C3D3
7022, 2061, 2035, 2089
*ELEMENT, TYPE=C3D3
7023, 1982, 1955, 2009
*ELEMENT, TYPE=C3D3
7024, 1844, 1901, 1871
*ELEMENT, TYPE=C3D3
7025, 2089, 2035, 2063
*ELEMENT, TYPE=C3D3
7026, 1871, 1901, 1928
*ELEMENT, TYPE=C3D3
7027, 1844, 1871, 1817
*ELEMENT, TYPE=C3D3
7028, 2089, 2063, 2117
*ELEMENT, TYPE=C3D3
7029, 1871, 1928, 1904
*ELEMENT, TYPE=C3D3
7030, 1817, 1871, 1848
*ELEMENT, TYPE=C3D3
7031, 2117, 2063, 2095
*ELEMENT, TYPE=C3D3
7032, 1904, 1928, 1958
*ELEMENT, TYPE=C3D3
7033, 1848, 1871, 1904
*ELEMENT, TYPE=C3D3
7034, 1958, 1928, 1982
*ELEMENT, TYPE=C3D3
7035, 1904, 1958, 1933
*ELEMENT, TYPE=C3D3
7036, 1958, 1982, 2011
*ELEMENT, TYPE=C3D3
7037, 1933, 1958, 1987
*ELEMENT, TYPE=C3D3
7038, 1904, 1933, 1879
*ELEMENT, TYPE=C3D3
7039, 2011, 1982, 2036
*ELEMENT, TYPE=C3D3
7040, 1987, 1958, 2011
*ELEMENT, TYPE=C3D3
7041, 1879, 1933, 1910
*ELEMENT, TYPE=C3D3
7042, 2036, 1982, 2009
*ELEMENT, TYPE=C3D3
7043, 1910, 1933, 1965
*ELEMENT, TYPE=C3D3
7044, 1879, 1910, 1854
*ELEMENT, TYPE=C3D3
7045, 1965, 1933, 1987
*ELEMENT, TYPE=C3D3
7046, 1910, 1965, 1938
*ELEMENT, TYPE=C3D3
7047, 1854, 1910, 1882
*ELEMENT, TYPE=C3D3
7048, 1910, 1938, 1882
*ELEMENT, TYPE=C3D3
7049, 1954, 1915, 1899
*ELEMENT, TYPE=C3D3
7050, 1899, 1915, 1862
*ELEMENT, TYPE=C3D3
7051, 1954, 1899, 1940
*ELEMENT, TYPE=C3D3
7052, 1954, 1940, 1993
*ELEMENT, TYPE=C3D3
7053, 1993, 1940, 1979
*ELEMENT, TYPE=C3D3
7054, 1954, 1993, 2005
*ELEMENT, TYPE=C3D3
7055, 1993, 1979, 2029
*ELEMENT, TYPE=C3D3
7056, 2005, 1993, 2046
*ELEMENT, TYPE=C3D3
7057, 2029, 1979, 2023
*ELEMENT, TYPE=C3D3
7058, 2046, 1993, 2029
*ELEMENT, TYPE=C3D3
7059, 2005, 2046, 2058
*ELEMENT, TYPE=C3D3
7060, 2023, 1979, 1970
*ELEMENT, TYPE=C3D3
7061, 2058, 2046, 2098
*ELEMENT, TYPE=C3D3
7062, 2023, 1970, 2012
*ELEMENT, TYPE=C3D3
7063, 2098, 2046, 2083
*ELEMENT, TYPE=C3D3
7064, 2012, 1970, 1962
*ELEMENT, TYPE=C3D3
7065, 2023, 2012, 2075
*ELEMENT, TYPE=C3D3
7066, 2083, 2046, 2029
*ELEMENT, TYPE=C3D3
7067, 1962, 1970, 1919
*ELEMENT, TYPE=C3D3
7068, 2075, 2012, 2054
*ELEMENT, TYPE=C3D3
7069, 1962, 1919, 1911
*ELEMENT, TYPE=C3D3
7070, 2054, 2012, 2007
*ELEMENT, TYPE=C3D3
7071, 2075, 2107, 2139
*ELEMENT, TYPE=C3D3
7072, 2007, 2012, 1962
*ELEMENT, TYPE=C3D3
7073, 2054, 2007, 2074
*ELEMENT, TYPE=C3D3
7074, 2007, 1962, 1953
*ELEMENT, TYPE=C3D3
7075, 1953, 1962, 1911
*ELEMENT, TYPE=C3D3
7076, 2007, 1953, 1997
*ELEMENT, TYPE=C3D3
7077, 1953, 1911, 1903
*ELEMENT, TYPE=C3D3
7078, 1997, 1953, 1944
*ELEMENT, TYPE=C3D3
7079, 2007, 1997, 2074
*ELEMENT, TYPE=C3D3
7080, 1903, 1911, 1860
*ELEMENT, TYPE=C3D3
7081, 1944, 1953, 1903
*ELEMENT, TYPE=C3D3
7082, 1903, 1860, 1850
*ELEMENT, TYPE=C3D3
7083, 1944, 1903, 1894
*ELEMENT, TYPE=C3D3
7084, 1850, 1860, 1807
*ELEMENT, TYPE=C3D3
7085, 1903, 1850, 1894
*ELEMENT, TYPE=C3D3
7086, 2036, 2009, 2061
*ELEMENT, TYPE=C3D3
7087, 2036, 2061, 2091
*ELEMENT, TYPE=C3D3
7088, 2091, 2061, 2115
*ELEMENT, TYPE=C3D3
7089, 2036, 2091, 2065
*ELEMENT, TYPE=C3D3
7090, 2115, 2061, 2089
*ELEMENT, TYPE=C3D3
7091, 2065, 2091, 2118
*ELEMENT, TYPE=C3D3
7092, 2115, 2089, 2145
*ELEMENT, TYPE=C3D3
7093, 2118, 2091, 2146
*ELEMENT, TYPE=C3D3
7094, 2065, 2118, 2097
*ELEMENT, TYPE=C3D3
7095, 2145, 2089, 2117
*ELEMENT, TYPE=C3D3
7096, 2146, 2091, 2115
*ELEMENT, TYPE=C3D3
7097, 2065, 2097, 2044
*ELEMENT, TYPE=C3D3
7098, 2145, 2117, 2167
*ELEMENT, TYPE=C3D3
7099, 2065, 2044, 2011
*ELEMENT, TYPE=C3D3
7100, 2167, 2117, 2147
*ELEMENT, TYPE=C3D3
7101, 2145, 2167, 2197
*ELEMENT, TYPE=C3D3
7102, 2011, 2044, 1987
*ELEMENT, TYPE=C3D3
7103, 2147, 2117, 2095
*ELEMENT, TYPE=C3D3
7104, 2197, 2167, 2223
*ELEMENT, TYPE=C3D3
7105, 1987, 2044, 2018
*ELEMENT, TYPE=C3D3
7106, 2223, 2167, 2200
*ELEMENT, TYPE=C3D3
7107, 2197, 2223, 2248
*ELEMENT, TYPE=C3D3
7108, 2200, 2167, 2147
*ELEMENT, TYPE=C3D3
7109, 2223, 2200, 2250
*ELEMENT, TYPE=C3D3
7110, 2248, 2223, 2276
*ELEMENT, TYPE=C3D3
7111, 2200, 2147, 2177
*ELEMENT, TYPE=C3D3
7112, 2250, 2200, 2229
*ELEMENT, TYPE=C3D3
7113, 2276, 2223, 2250
*ELEMENT, TYPE=C3D3
7114, 2177, 2147, 2121
*ELEMENT, TYPE=C3D3
7115, 2229, 2200, 2177
*ELEMENT, TYPE=C3D3
7116, 2121, 2147, 2095
*ELEMENT, TYPE=C3D3
7117, 2177, 2121, 2152
*ELEMENT, TYPE=C3D3
7118, 2152, 2121, 2100
*ELEMENT, TYPE=C3D3
7119, 2177, 2152, 2206
*ELEMENT, TYPE=C3D3
7120, 2152, 2100, 2130
*ELEMENT, TYPE=C3D3
7121, 2206, 2152, 2184
*ELEMENT, TYPE=C3D3
7122, 2177, 2206, 2229
*ELEMENT, TYPE=C3D3
7123, 2130, 2100, 2076
*ELEMENT, TYPE=C3D3
7124, 2184, 2152, 2130
*ELEMENT, TYPE=C3D3
7125, 2229, 2206, 2257
*ELEMENT, TYPE=C3D3
7126, 2076, 2100, 2047
*ELEMENT, TYPE=C3D3
7127, 2184, 2130, 2161
*ELEMENT, TYPE=C3D3
7128, 2257, 2206, 2235
*ELEMENT, TYPE=C3D3
7129, 2076, 2047, 2024
*ELEMENT, TYPE=C3D3
7130, 2161, 2130, 2109
*ELEMENT, TYPE=C3D3
7131, 2235, 2206, 2184
*ELEMENT, TYPE=C3D3
7132, 2076, 2024, 2056
*ELEMENT, TYPE=C3D3
7133, 2109, 2130, 2076
*ELEMENT, TYPE=C3D3
7134, 2056, 2024, 2002
*ELEMENT, TYPE=C3D3
7135, 2076, 2056, 2109
*ELEMENT, TYPE=C3D3
7136, 2056, 2002, 2031
*ELEMENT, TYPE=C3D3
7137, 2109, 2056, 2086
*ELEMENT, TYPE=C3D3
7138, 2031, 2002, 1977
*ELEMENT, TYPE=C3D3
7139, 2086, 2056, 2031
*ELEMENT, TYPE=C3D3
7140, 2031, 1977, 2016
*ELEMENT, TYPE=C3D3
7141, 2086, 2031, 2066
*ELEMENT, TYPE=C3D3
7142, 2016, 1977, 1960
*ELEMENT, TYPE=C3D3
7143, 2031, 2016, 2066
*ELEMENT, TYPE=C3D3
7144, 1960, 1977, 1923
*ELEMENT, TYPE=C3D3
7145, 2083, 2029, 2073
*ELEMENT, TYPE=C3D3
7146, 2073, 2029, 2023
*ELEMENT, TYPE=C3D3
7147, 2083, 2073, 2126
*ELEMENT, TYPE=C3D3
7148, 2073, 2023, 2075
*ELEMENT, TYPE=C3D3
7149, 2126, 2073, 2114
*ELEMENT, TYPE=C3D3
7150, 2073, 2075, 2114
*ELEMENT, TYPE=C3D3
7151, 2126, 2114, 2175
*ELEMENT, TYPE=C3D3
7152, 2114, 2075, 2139
*ELEMENT, TYPE=C3D3
7153, 2146, 2115, 2166
*ELEMENT, TYPE=C3D3
7154, 2166, 2115, 2145
*ELEMENT, TYPE=C3D3
7155, 2146, 2166, 2198
*ELEMENT, TYPE=C3D3
7156, 2166, 2145, 2197
*ELEMENT, TYPE=C3D3
7157, 2198, 2166, 2221
*ELEMENT, TYPE=C3D3
7158, 2166, 2197, 2221
*ELEMENT, TYPE=C3D3
7159, 2198, 2221, 2249
*ELEMENT, TYPE=C3D3
7160, 2221, 2197, 2248
*ELEMENT, TYPE=C3D3
7161, 2249, 2221, 2274
*ELEMENT, TYPE=C3D3
7162, 2221, 2248, 2274
*ELEMENT, TYPE=C3D3
7163, 2083, 2126, 2134
*ELEMENT, TYPE=C3D3
7164, 2134, 2126, 2173
*ELEMENT, TYPE=C3D3
7165, 2083, 2134, 2098
*ELEMENT, TYPE=C3D3
7166, 2173, 2126, 2175
*ELEMENT, TYPE=C3D3
7167, 2098, 2134, 2148
*ELEMENT, TYPE=C3D3
7168, 2148, 2134, 2187
*ELEMENT, TYPE=C3D3
7169, 2098, 2148, 2110
*ELEMENT, TYPE=C3D3
7170, 2187, 2134, 2173
*ELEMENT, TYPE=C3D3
7171, 2148, 2187, 2199
*ELEMENT, TYPE=C3D3
7172, 2110, 2148, 2160
*ELEMENT, TYPE=C3D3
7173, 2199, 2187, 2236
*ELEMENT, TYPE=C3D3
7174, 2148, 2199, 2160
*ELEMENT, TYPE=C3D3
7175, 2236, 2187, 2242
*ELEMENT, TYPE=C3D3
7176, 2160, 2199, 2212
*ELEMENT, TYPE=C3D3
7177, 2212, 2199, 2252
*ELEMENT, TYPE=C3D3
7178, 2160, 2212, 2174
*ELEMENT, TYPE=C3D3
7179, 2252, 2199, 2236
*ELEMENT, TYPE=C3D3
7180, 2212, 2252, 2263
*ELEMENT, TYPE=C3D3
7181, 2174, 2212, 2226
*ELEMENT, TYPE=C3D3
7182, 2263, 2252, 2297
*ELEMENT, TYPE=C3D3
7183, 2212, 2263, 2226
*ELEMENT, TYPE=C3D3
7184, 2297, 2252, 2316
*ELEMENT, TYPE=C3D3
7185, 2226, 2263, 2275
*ELEMENT, TYPE=C3D3
7186, 2275, 2263, 2323
*ELEMENT, TYPE=C3D3
7187, 2226, 2275, 2240
*ELEMENT, TYPE=C3D3
7188, 2323, 2263, 2297
*ELEMENT, TYPE=C3D3
7189, 2275, 2323, 2325
*ELEMENT, TYPE=C3D3
7190, 2240, 2275, 2291
*ELEMENT, TYPE=C3D3
7191, 2323, 2297, 2348
*ELEMENT, TYPE=C3D3
7192, 2325, 2323, 2364
*ELEMENT, TYPE=C3D3
7193, 2291, 2275, 2325
*ELEMENT, TYPE=C3D3
7194, 2364, 2323, 2387
*ELEMENT, TYPE=C3D3
7195, 2325, 2364, 2376
*ELEMENT, TYPE=C3D3
7196, 2376, 2364, 2422
*ELEMENT, TYPE=C3D3
7197, 2325, 2376, 2342
*ELEMENT, TYPE=C3D3
7198, 2342, 2376, 2391
*ELEMENT, TYPE=C3D3
7199, 2325, 2342, 2291
*ELEMENT, TYPE=C3D3
7200, 2391, 2376, 2425
*ELEMENT, TYPE=C3D3
7201, 2342, 2391, 2359
*ELEMENT, TYPE=C3D3
7202, 2291, 2342, 2305
*ELEMENT, TYPE=C3D3
7203, 2391, 2425, 2442
*ELEMENT, TYPE=C3D3
7204, 2359, 2391, 2410
*ELEMENT, TYPE=C3D3
7205, 2305, 2342, 2359
*ELEMENT, TYPE=C3D3
7206, 2442, 2425, 2496
*ELEMENT, TYPE=C3D3
7207, 2410, 2391, 2442
*ELEMENT, TYPE=C3D3
7208, 2410, 2442, 2459
*ELEMENT, TYPE=C3D3
7209, 2459, 2442, 2492
*ELEMENT, TYPE=C3D3
7210, 2410, 2459, 2424
*ELEMENT, TYPE=C3D3
7211, 2492, 2442, 2496
*ELEMENT, TYPE=C3D3
7212, 2424, 2459, 2472
*ELEMENT, TYPE=C3D3
7213, 2410, 2424, 2374
*ELEMENT, TYPE=C3D3
7214, 2472, 2459, 2511
*ELEMENT, TYPE=C3D3
7215, 2424, 2472, 2443
*ELEMENT, TYPE=C3D3
7216, 2374, 2424, 2392
*ELEMENT, TYPE=C3D3
7217, 2511, 2459, 2492
*ELEMENT, TYPE=C3D3
7218, 2443, 2472, 2493
*ELEMENT, TYPE=C3D3
7219, 2392, 2424, 2443
*ELEMENT, TYPE=C3D3
7220, 2493, 2472, 2521
*ELEMENT, TYPE=C3D3
7221, 2443, 2493, 2462
*ELEMENT, TYPE=C3D3
7222, 2521, 2472, 2511
*ELEMENT, TYPE=C3D3
7223, 2493, 2521, 2543
*ELEMENT, TYPE=C3D3
7224, 2462, 2493, 2508
*ELEMENT, TYPE=C3D3
7225, 2543, 2521, 2575
*ELEMENT, TYPE=C3D3
7226, 2493, 2543, 2508
*ELEMENT, TYPE=C3D3
7227, 2575, 2521, 2553
*ELEMENT, TYPE=C3D3
7228, 2508, 2543, 2557
*ELEMENT, TYPE=C3D3
7229, 2553, 2521, 2511
*ELEMENT, TYPE=C3D3
7230, 2575, 2553, 2603
*ELEMENT, TYPE=C3D3
7231, 2557, 2543, 2592
*ELEMENT, TYPE=C3D3
7232, 2553, 2511, 2569
*ELEMENT, TYPE=C3D3
7233, 2592, 2543, 2575
*ELEMENT, TYPE=C3D3
7234, 2557, 2592, 2610
*ELEMENT, TYPE=C3D3
7235, 2592, 2575, 2624
*ELEMENT, TYPE=C3D3
7236, 2610, 2592, 2634
*ELEMENT, TYPE=C3D3
7237, 2624, 2575, 2603
*ELEMENT, TYPE=C3D3
7238, 2592, 2624, 2634
*ELEMENT, TYPE=C3D3
7239, 2634, 2624, 2675
*ELEMENT, TYPE=C3D3
7240, 2146, 2198, 2169
*ELEMENT, TYPE=C3D3
7241, 2146, 2169, 2118
*ELEMENT, TYPE=C3D3
7242, 2187, 2173, 2242
*ELEMENT, TYPE=C3D3
7243, 1482, 1503, 1547
*ELEMENT, TYPE=C3D3
7244, 1547, 1503, 1564
*ELEMENT, TYPE=C3D3
7245, 1564, 1503, 1527
*ELEMENT, TYPE=C3D3
7246, 1527, 1503, 1457
*ELEMENT, TYPE=C3D3
7247, 1564, 1527, 1589
*ELEMENT, TYPE=C3D3
7248, 1527, 1457, 1483
*ELEMENT, TYPE=C3D3
7249, 1589, 1527, 1548
*ELEMENT, TYPE=C3D3
7250, 1564, 1589, 1625
*ELEMENT, TYPE=C3D3
7251, 1483, 1457, 1414
*ELEMENT, TYPE=C3D3
7252, 1527, 1483, 1548
*ELEMENT, TYPE=C3D3
7253, 1625, 1589, 1651
*ELEMENT, TYPE=C3D3
7254, 1483, 1414, 1438
*ELEMENT, TYPE=C3D3
7255, 1548, 1483, 1507
*ELEMENT, TYPE=C3D3
7256, 1651, 1589, 1610
*ELEMENT, TYPE=C3D3
7257, 1483, 1438, 1507
*ELEMENT, TYPE=C3D3
7258, 1610, 1589, 1548
*ELEMENT, TYPE=C3D3
7259, 1651, 1610, 1667
*ELEMENT, TYPE=C3D3
7260, 1507, 1438, 1468
*ELEMENT, TYPE=C3D3
7261, 1610, 1548, 1569
*ELEMENT, TYPE=C3D3
7262, 1667, 1610, 1633
*ELEMENT, TYPE=C3D3
7263, 1468, 1438, 1394
*ELEMENT, TYPE=C3D3
7264, 1507, 1468, 1536
*ELEMENT, TYPE=C3D3
7265, 1569, 1548, 1507
*ELEMENT, TYPE=C3D3
7266, 1468, 1394, 1426
*ELEMENT, TYPE=C3D3
7267, 1507, 1536, 1569
*ELEMENT, TYPE=C3D3
7268, 1426, 1394, 1356
*ELEMENT, TYPE=C3D3
7269, 1468, 1426, 1496
*ELEMENT, TYPE=C3D3
7270, 1569, 1536, 1600
*ELEMENT, TYPE=C3D3
7271, 1496, 1426, 1453
*ELEMENT, TYPE=C3D3
7272, 1468, 1496, 1536
*ELEMENT, TYPE=C3D3
7273, 1600, 1536, 1559
*ELEMENT, TYPE=C3D3
7274, 1536, 1496, 1559
*ELEMENT, TYPE=C3D3
7275, 1559, 1496, 1524
*ELEMENT, TYPE=C3D3
7276, 1524, 1496, 1453
*ELEMENT, TYPE=C3D3
7277, 1633, 1610, 1569
*ELEMENT, TYPE=C3D3
7278, 1633, 1569, 1600
*ELEMENT, TYPE=C3D3
7279, 1633, 1600, 1659
*ELEMENT, TYPE=C3D3
7280, 1659, 1600, 1619
*ELEMENT, TYPE=C3D3
7281, 1633, 1659, 1691
*ELEMENT, TYPE=C3D3
7282, 1619, 1600, 1559
*ELEMENT, TYPE=C3D3
7283, 1691, 1659, 1715
*ELEMENT, TYPE=C3D3
7284, 1633, 1691, 1667
*ELEMENT, TYPE=C3D3
7285, 1715, 1659, 1680
*ELEMENT, TYPE=C3D3
7286, 1667, 1691, 1726
*ELEMENT, TYPE=C3D3
7287, 1680, 1659, 1619
*ELEMENT, TYPE=C3D3
7288, 1726, 1691, 1751
*ELEMENT, TYPE=C3D3
7289, 1667, 1726, 1708
*ELEMENT, TYPE=C3D3
7290, 1751, 1691, 1715
*ELEMENT, TYPE=C3D3
7291, 1667, 1708, 1651
*ELEMENT, TYPE=C3D3
7292, 1751, 1715, 1773
*ELEMENT, TYPE=C3D3
7293, 1773, 1715, 1740
*ELEMENT, TYPE=C3D3
7294, 1751, 1773, 1809
*ELEMENT, TYPE=C3D3
7295, 1740, 1715, 1680
*ELEMENT, TYPE=C3D3
7296, 1809, 1773, 1829
*ELEMENT, TYPE=C3D3
7297, 1751, 1809, 1783
*ELEMENT, TYPE=C3D3
7298, 1829, 1773, 1798
*ELEMENT, TYPE=C3D3
7299, 1809, 1829, 1864
*ELEMENT, TYPE=C3D3
7300, 1798, 1773, 1740
*ELEMENT, TYPE=C3D3
7301, 1829, 1798, 1854
*ELEMENT, TYPE=C3D3
7302, 1864, 1829, 1882
*ELEMENT, TYPE=C3D3
7303, 1854, 1798, 1823
*ELEMENT, TYPE=C3D3
7304, 1882, 1829, 1854
*ELEMENT, TYPE=C3D3
7305, 1823, 1798, 1767
*ELEMENT, TYPE=C3D3
7306, 1767, 1798, 1740
*ELEMENT, TYPE=C3D3
7307, 1767, 1740, 1709
*ELEMENT, TYPE=C3D3
7308, 1709, 1740, 1680
*ELEMENT, TYPE=C3D3
7309, 1767, 1709, 1733
*ELEMENT, TYPE=C3D3
7310, 1733, 1709, 1673
*ELEMENT, TYPE=C3D3
7311, 1767, 1733, 1790
*ELEMENT, TYPE=C3D3
7312, 1790, 1733, 1760
*ELEMENT, TYPE=C3D3
7313, 1767, 1790, 1823
*ELEMENT, TYPE=C3D3
7314, 1790, 1760, 1817
*ELEMENT, TYPE=C3D3
7315, 1823, 1790, 1848
*ELEMENT, TYPE=C3D3
7316, 1817, 1760, 1787
*ELEMENT, TYPE=C3D3
7317, 1848, 1790, 1817
*ELEMENT, TYPE=C3D3
7318, 1787, 1760, 1728
*ELEMENT, TYPE=C3D3
7319, 1817, 1787, 1844
*ELEMENT, TYPE=C3D3
7320, 1787, 1728, 1759
*ELEMENT, TYPE=C3D3
7321, 1844, 1787, 1816
*ELEMENT, TYPE=C3D3
7322, 1787, 1759, 1816
*ELEMENT, TYPE=C3D3
7323, 1816, 1759, 1788
*ELEMENT, TYPE=C3D3
7324, 1816, 1788, 1845
*ELEMENT, TYPE=C3D3
7325, 1845, 1788, 1819
*ELEMENT, TYPE=C3D3
7326, 1816, 1845, 1870
*ELEMENT, TYPE=C3D3
7327, 1845, 1819, 1875
*ELEMENT, TYPE=C3D3
7328, 1870, 1845, 1902
*ELEMENT, TYPE=C3D3
7329, 1816, 1870, 1844
*ELEMENT, TYPE=C3D3
7330, 1845, 1875, 1902
*ELEMENT, TYPE=C3D3
7331, 1902, 1875, 1931
*ELEMENT, TYPE=C3D3
7332, 1902, 1931, 1957
*ELEMENT, TYPE=C3D3
7333, 1902, 1957, 1926
*ELEMENT, TYPE=C3D3
7334, 1902, 1926, 1870
*ELEMENT, TYPE=C3D3
7335, 1726, 1751, 1783
*ELEMENT, TYPE=C3D3
7336, 2250, 2229, 2282
*ELEMENT, TYPE=C3D3
7337, 2282, 2229, 2257
*ELEMENT, TYPE=C3D3
7338, 2250, 2282, 2301
*ELEMENT, TYPE=C3D3
7339, 2282, 2257, 2308
*ELEMENT, TYPE=C3D3
7340, 2301, 2282, 2334
*ELEMENT, TYPE=C3D3
7341, 2250, 2301, 2276
*ELEMENT, TYPE=C3D3
7342, 2308, 2257, 2288
*ELEMENT, TYPE=C3D3
7343, 2282, 2308, 2334
*ELEMENT, TYPE=C3D3
7344, 2276, 2301, 2329
*ELEMENT, TYPE=C3D3
7345, 2308, 2288, 2338
*ELEMENT, TYPE=C3D3
7346, 2334, 2308, 2363
*ELEMENT, TYPE=C3D3
7347, 2276, 2329, 2299
*ELEMENT, TYPE=C3D3
7348, 2338, 2288, 2317
*ELEMENT, TYPE=C3D3
7349, 2363, 2308, 2338
*ELEMENT, TYPE=C3D3
7350, 2299, 2329, 2351
*ELEMENT, TYPE=C3D3
7351, 2317, 2288, 2266
*ELEMENT, TYPE=C3D3
7352, 2351, 2329, 2380
*ELEMENT, TYPE=C3D3
7353, 2299, 2351, 2326
*ELEMENT, TYPE=C3D3
7354, 2266, 2288, 2235
*ELEMENT, TYPE=C3D3
7355, 2380, 2329, 2355
*ELEMENT, TYPE=C3D3
7356, 2235, 2288, 2257
*ELEMENT, TYPE=C3D3
7357, 2266, 2235, 2214
*ELEMENT, TYPE=C3D3
7358, 2355, 2329, 2301
*ELEMENT, TYPE=C3D3
7359, 2214, 2235, 2184
*ELEMENT, TYPE=C3D3
7360, 2355, 2301, 2334
*ELEMENT, TYPE=C3D3
7361, 2214, 2184, 2161
*ELEMENT, TYPE=C3D3
7362, 2355, 2334, 2385
*ELEMENT, TYPE=C3D3
7363, 2214, 2161, 2192
*ELEMENT, TYPE=C3D3
7364, 2385, 2334, 2363
*ELEMENT, TYPE=C3D3
7365, 2192, 2161, 2140
*ELEMENT, TYPE=C3D3
7366, 2385, 2363, 2414
*ELEMENT, TYPE=C3D3
7367, 2140, 2161, 2109
*ELEMENT, TYPE=C3D3
7368, 2192, 2140, 2171
*ELEMENT, TYPE=C3D3
7369, 2414, 2363, 2389
*ELEMENT, TYPE=C3D3
7370, 2171, 2140, 2119
*ELEMENT, TYPE=C3D3
7371, 2192, 2171, 2224
*ELEMENT, TYPE=C3D3
7372, 2389, 2363, 2338
*ELEMENT, TYPE=C3D3
7373, 2119, 2140, 2086
*ELEMENT, TYPE=C3D3
7374, 2224, 2171, 2207
*ELEMENT, TYPE=C3D3
7375, 2086, 2140, 2109
*ELEMENT, TYPE=C3D3
7376, 2119, 2086, 2066
*ELEMENT, TYPE=C3D3
7377, 2224, 2207, 2258
*ELEMENT, TYPE=C3D3
7378, 2258, 2207, 2239
*ELEMENT, TYPE=C3D3
7379, 2224, 2258, 2277
*ELEMENT, TYPE=C3D3
7380, 2258, 2239, 2290
*ELEMENT, TYPE=C3D3
7381, 2277, 2258, 2307
*ELEMENT, TYPE=C3D3
7382, 2290, 2239, 2272
*ELEMENT, TYPE=C3D3
7383, 2258, 2290, 2307
*ELEMENT, TYPE=C3D3
7384, 2272, 2239, 2220
*ELEMENT, TYPE=C3D3
7385, 2307, 2290, 2341
*ELEMENT, TYPE=C3D3
7386, 2272, 2220, 2256
*ELEMENT, TYPE=C3D3
7387, 2341, 2290, 2324
*ELEMENT, TYPE=C3D3
7388, 2256, 2220, 2205
*ELEMENT, TYPE=C3D3
7389, 2272, 2256, 2305
*ELEMENT, TYPE=C3D3
7390, 2324, 2290, 2272
*ELEMENT, TYPE=C3D3
7391, 2256, 2205, 2240
*ELEMENT, TYPE=C3D3
7392, 2305, 2256, 2291
*ELEMENT, TYPE=C3D3
7393, 2324, 2272, 2305
*ELEMENT, TYPE=C3D3
7394, 2240, 2205, 2189
*ELEMENT, TYPE=C3D3
7395, 2291, 2256, 2240
*ELEMENT, TYPE=C3D3
7396, 2324, 2305, 2359
*ELEMENT, TYPE=C3D3
7397, 2240, 2189, 2226
*ELEMENT, TYPE=C3D3
7398, 2324, 2359, 2374
*ELEMENT, TYPE=C3D3
7399, 2226, 2189, 2174
*ELEMENT, TYPE=C3D3
7400, 2374, 2359, 2410
*ELEMENT, TYPE=C3D3
7401, 2174, 2189, 2137
*ELEMENT, TYPE=C3D3
7402, 2174, 2137, 2122
*ELEMENT, TYPE=C3D3
7403, 2122, 2137, 2085
*ELEMENT, TYPE=C3D3
7404, 2174, 2122, 2160
*ELEMENT, TYPE=C3D3
7405, 2122, 2085, 2069
*ELEMENT, TYPE=C3D3
7406, 2160, 2122, 2110
*ELEMENT, TYPE=C3D3
7407, 2122, 2069, 2110
*ELEMENT, TYPE=C3D3
7408, 2110, 2069, 2058
*ELEMENT, TYPE=C3D3
7409, 2110, 2058, 2098
*ELEMENT, TYPE=C3D3
7410, 2266, 2214, 2244
*ELEMENT, TYPE=C3D3
7411, 2244, 2214, 2192
*ELEMENT, TYPE=C3D3
7412, 2266, 2244, 2295
*ELEMENT, TYPE=C3D3
7413, 2244, 2192, 2224
*ELEMENT, TYPE=C3D3
7414, 2295, 2244, 2277
*ELEMENT, TYPE=C3D3
7415, 2244, 2224, 2277
*ELEMENT, TYPE=C3D3
7416, 2355, 2385, 2407
*ELEMENT, TYPE=C3D3
7417, 2407, 2385, 2433
*ELEMENT, TYPE=C3D3
7418, 2355, 2407, 2380
*ELEMENT, TYPE=C3D3
7419, 2433, 2385, 2414
*ELEMENT, TYPE=C3D3
7420, 2380, 2407, 2431
*ELEMENT, TYPE=C3D3
7421, 2433, 2414, 2464
*ELEMENT, TYPE=C3D3
7422, 2431, 2407, 2458
*ELEMENT, TYPE=C3D3
7423, 2380, 2431, 2404
*ELEMENT, TYPE=C3D3
7424, 2464, 2414, 2438
*ELEMENT, TYPE=C3D3
7425, 2458, 2407, 2433
*ELEMENT, TYPE=C3D3
7426, 2380, 2404, 2351
*ELEMENT, TYPE=C3D3
7427, 2438, 2414, 2389
*ELEMENT, TYPE=C3D3
7428, 2438, 2389, 2420
*ELEMENT, TYPE=C3D3
7429, 2420, 2389, 2370
*ELEMENT, TYPE=C3D3
7430, 2370, 2389, 2338
*ELEMENT, TYPE=C3D3
7431, 2420, 2370, 2397
*ELEMENT, TYPE=C3D3
7432, 2370, 2338, 2317
*ELEMENT, TYPE=C3D3
7433, 2397, 2370, 2346
*ELEMENT, TYPE=C3D3
7434, 2370, 2317, 2346
*ELEMENT, TYPE=C3D3
7435, 2346, 2317, 2295
*ELEMENT, TYPE=C3D3
7436, 2295, 2317, 2266
*ELEMENT, TYPE=C3D3
7437, 2346, 2295, 2328
*ELEMENT, TYPE=C3D3
7438, 2328, 2295, 2277
*ELEMENT, TYPE=C3D3
7439, 2346, 2328, 2378
*ELEMENT, TYPE=C3D3
7440, 2328, 2277, 2307
*ELEMENT, TYPE=C3D3
7441, 2378, 2328, 2362
*ELEMENT, TYPE=C3D3
7442, 2328, 2307, 2362
*ELEMENT, TYPE=C3D3
7443, 2362, 2307, 2341
*ELEMENT, TYPE=C3D3
7444, 2362, 2341, 2392
*ELEMENT, TYPE=C3D3
7445, 2392, 2341, 2374
*ELEMENT, TYPE=C3D3
7446, 2362, 2392, 2413
*ELEMENT, TYPE=C3D3
7447, 2374, 2341, 2324
*ELEMENT, TYPE=C3D3
7448, 2413, 2392, 2443
*ELEMENT, TYPE=C3D3
7449, 2362, 2413, 2378
*ELEMENT, TYPE=C3D3
7450, 2413, 2443, 2462
*ELEMENT, TYPE=C3D3
7451, 2378, 2413, 2429
*ELEMENT, TYPE=C3D3
7452, 2429, 2413, 2462
*ELEMENT, TYPE=C3D3
7453, 2378, 2429, 2397
*ELEMENT, TYPE=C3D3
7454, 2397, 2429, 2451
*ELEMENT, TYPE=C3D3
7455, 2378, 2397, 2346
*ELEMENT, TYPE=C3D3
7456, 2451, 2429, 2476
*ELEMENT, TYPE=C3D3
7457, 2476, 2429, 2462
*ELEMENT, TYPE=C3D3
7458, 2476, 2462, 2508
*ELEMENT, TYPE=C3D3
7459, 2458, 2433, 2483
*ELEMENT, TYPE=C3D3
7460, 2483, 2433, 2464
*ELEMENT, TYPE=C3D3
7461, 2458, 2483, 2505
*ELEMENT, TYPE=C3D3
7462, 2483, 2464, 2512
*ELEMENT, TYPE=C3D3
7463, 2505, 2483, 2537
*ELEMENT, TYPE=C3D3
7464, 2458, 2505, 2480
*ELEMENT, TYPE=C3D3
7465, 2483, 2512, 2537
*ELEMENT, TYPE=C3D3
7466, 2458, 2480, 2431
*ELEMENT, TYPE=C3D3
7467, 2537, 2512, 2563
*ELEMENT, TYPE=C3D3
7468, 2563, 2512, 2541
*ELEMENT, TYPE=C3D3
7469, 2397, 2451, 2420
*ELEMENT, TYPE=C3D3
7470, 431, 418, 394
*ELEMENT, TYPE=C3D3
7471, 431, 394, 408
*ELEMENT, TYPE=C3D3
7472, 408, 394, 370
*ELEMENT, TYPE=C3D3
7473, 431, 408, 448
*ELEMENT, TYPE=C3D3
7474, 370, 394, 358
*ELEMENT, TYPE=C3D3
7475, 448, 408, 424
*ELEMENT, TYPE=C3D3
7476, 1823, 1848, 1879
*ELEMENT, TYPE=C3D3
7477, 1879, 1848, 1904
*ELEMENT, TYPE=C3D3
7478, 1823, 1879, 1854
*ELEMENT, TYPE=C3D3
7479, 5442, 5437, 5400
*ELEMENT, TYPE=C3D3
7480, 5400, 5437, 5392
*ELEMENT, TYPE=C3D3
7481, 5442, 5400, 5406
*ELEMENT, TYPE=C3D3
7482, 5392, 5437, 5427
*ELEMENT, TYPE=C3D3
7483, 5400, 5392, 5355
*ELEMENT, TYPE=C3D3
7484, 5406, 5400, 5361
*ELEMENT, TYPE=C3D3
7485, 5392, 5427, 5386
*ELEMENT, TYPE=C3D3
7486, 5400, 5355, 5361
*ELEMENT, TYPE=C3D3
7487, 5386, 5427, 5423
*ELEMENT, TYPE=C3D3
7488, 5361, 5355, 5317
*ELEMENT, TYPE=C3D3
7489, 5386, 5423, 5381
*ELEMENT, TYPE=C3D3
7490, 5317, 5355, 5312
*ELEMENT, TYPE=C3D3
7491, 5381, 5423, 5418
*ELEMENT, TYPE=C3D3
7492, 5386, 5381, 5342
*ELEMENT, TYPE=C3D3
7493, 5312, 5355, 5346
*ELEMENT, TYPE=C3D3
7494, 5381, 5418, 5376
*ELEMENT, TYPE=C3D3
7495, 5342, 5381, 5338
*ELEMENT, TYPE=C3D3
7496, 5386, 5342, 5346
*ELEMENT, TYPE=C3D3
7497, 5346, 5355, 5392
*ELEMENT, TYPE=C3D3
7498, 5376, 5418, 5415
*ELEMENT, TYPE=C3D3
7499, 5338, 5381, 5376
*ELEMENT, TYPE=C3D3
7500, 5346, 5342, 5302
*ELEMENT, TYPE=C3D3
7501, 5346, 5392, 5386
*ELEMENT, TYPE=C3D3
7502, 5376, 5415, 5372
*ELEMENT, TYPE=C3D3
7503, 5338, 5376, 5334
*ELEMENT, TYPE=C3D3
7504, 5302, 5342, 5300
*ELEMENT, TYPE=C3D3
7505, 5376, 5372, 5334
*ELEMENT, TYPE=C3D3
7506, 5300, 5342, 5338
*ELEMENT, TYPE=C3D3
7507, 5302, 5300, 5260
*ELEMENT, TYPE=C3D3
7508, 5334, 5372, 5328
*ELEMENT, TYPE=C3D3
7509, 5300, 5338, 5293
*ELEMENT, TYPE=C3D3
7510, 5260, 5300, 5256
*ELEMENT, TYPE=C3D3
7511, 5302, 5260, 5265
*ELEMENT, TYPE=C3D3
7512, 5328, 5372, 5368
*ELEMENT, TYPE=C3D3
7513, 5293, 5338, 5334
*ELEMENT, TYPE=C3D3
7514, 5256, 5300, 5293
*ELEMENT, TYPE=C3D3
7515, 5302, 5265, 5312
*ELEMENT, TYPE=C3D3
7516, 5368, 5372, 5412
*ELEMENT, TYPE=C3D3
7517, 5293, 5334, 5291
*ELEMENT, TYPE=C3D3
7518, 5302, 5312, 5346
*ELEMENT, TYPE=C3D3
7519, 5412, 5372, 5415
*ELEMENT, TYPE=C3D3
7520, 5291, 5334, 5328
*ELEMENT, TYPE=C3D3
7521, 5293, 5291, 5252
*ELEMENT, TYPE=C3D3
7522, 5291, 5328, 5287
*ELEMENT, TYPE=C3D3
7523, 5252, 5291, 5248
*ELEMENT, TYPE=C3D3
7524, 5293, 5252, 5256
*ELEMENT, TYPE=C3D3
7525, 5287, 5328, 5326
*ELEMENT, TYPE=C3D3
7526, 5248, 5291, 5287
*ELEMENT, TYPE=C3D3
7527, 5252, 5248, 5208
*ELEMENT, TYPE=C3D3
7528, 5256, 5252, 5213
*ELEMENT, TYPE=C3D3
7529, 5326, 5328, 5368
*ELEMENT, TYPE=C3D3
7530, 5208, 5248, 5203
*ELEMENT, TYPE=C3D3
7531, 5252, 5208, 5213
*ELEMENT, TYPE=C3D3
7532, 5203, 5248, 5244
*ELEMENT, TYPE=C3D3
7533, 5208, 5203, 5167
*ELEMENT, TYPE=C3D3
7534, 5213, 5208, 5169
*ELEMENT, TYPE=C3D3
7535, 5244, 5248, 5287
*ELEMENT, TYPE=C3D3
7536, 5203, 5244, 5202
*ELEMENT, TYPE=C3D3
7537, 5167, 5203, 5162
*ELEMENT, TYPE=C3D3
7538, 5169, 5208, 5167
*ELEMENT, TYPE=C3D3
7539, 5244, 5287, 5282
*ELEMENT, TYPE=C3D3
7540, 5202, 5244, 5241
*ELEMENT, TYPE=C3D3
7541, 5162, 5203, 5202
*ELEMENT, TYPE=C3D3
7542, 5282, 5287, 5326
*ELEMENT, TYPE=C3D3
7543, 5244, 5282, 5241
*ELEMENT, TYPE=C3D3
7544, 5162, 5202, 5158
*ELEMENT, TYPE=C3D3
7545, 5282, 5326, 5322
*ELEMENT, TYPE=C3D3
7546, 5241, 5282, 5279
*ELEMENT, TYPE=C3D3
7547, 5158, 5202, 5197
*ELEMENT, TYPE=C3D3
7548, 5162, 5158, 5120
*ELEMENT, TYPE=C3D3
7549, 5322, 5326, 5365
*ELEMENT, TYPE=C3D3
7550, 5279, 5282, 5322
*ELEMENT, TYPE=C3D3
7551, 5197, 5202, 5241
*ELEMENT, TYPE=C3D3
7552, 5120, 5158, 5115
*ELEMENT, TYPE=C3D3
7553, 5365, 5326, 5368
*ELEMENT, TYPE=C3D3
7554, 5279, 5322, 5320
*ELEMENT, TYPE=C3D3
7555, 5197, 5241, 5238
*ELEMENT, TYPE=C3D3
7556, 5115, 5158, 5155
*ELEMENT, TYPE=C3D3
7557, 5365, 5368, 5408
*ELEMENT, TYPE=C3D3
7558, 5320, 5322, 5362
*ELEMENT, TYPE=C3D3
7559, 5238, 5241, 5279
*ELEMENT, TYPE=C3D3
7560, 5155, 5158, 5197
*ELEMENT, TYPE=C3D3
7561, 5408, 5368, 5412
*ELEMENT, TYPE=C3D3
7562, 5362, 5322, 5365
*ELEMENT, TYPE=C3D3
7563, 5155, 5197, 5195
*ELEMENT, TYPE=C3D3
7564, 5362, 5365, 5404
*ELEMENT, TYPE=C3D3
7565, 5195, 5197, 5238
*ELEMENT, TYPE=C3D3
7566, 5155, 5195, 5152
*ELEMENT, TYPE=C3D3
7567, 5404, 5365, 5408
*ELEMENT, TYPE=C3D3
7568, 5362, 5404, 5402
*ELEMENT, TYPE=C3D3
7569, 5195, 5238, 5234
*ELEMENT, TYPE=C3D3
7570, 5152, 5195, 5192
*ELEMENT, TYPE=C3D3
7571, 5362, 5402, 5359
*ELEMENT, TYPE=C3D3
7572, 5234, 5238, 5277
*ELEMENT, TYPE=C3D3
7573, 5195, 5234, 5192
*ELEMENT, TYPE=C3D3
7574, 5359, 5402, 5399
*ELEMENT, TYPE=C3D3
7575, 5277, 5238, 5279
*ELEMENT, TYPE=C3D3
7576, 5192, 5234, 5232
*ELEMENT, TYPE=C3D3
7577, 5359, 5399, 5358
*ELEMENT, TYPE=C3D3
7578, 5277, 5279, 5320
*ELEMENT, TYPE=C3D3
7579, 5232, 5234, 5274
*ELEMENT, TYPE=C3D3
7580, 5192, 5232, 5189
*ELEMENT, TYPE=C3D3
7581, 5358, 5399, 5396
*ELEMENT, TYPE=C3D3
7582, 5274, 5234, 5277
*ELEMENT, TYPE=C3D3
7583, 5232, 5274, 5270
*ELEMENT, TYPE=C3D3
7584, 5189, 5232, 5230
*ELEMENT, TYPE=C3D3
7585, 5358, 5396, 5353
*ELEMENT, TYPE=C3D3
7586, 5274, 5277, 5316
*ELEMENT, TYPE=C3D3
7587, 5270, 5274, 5314
*ELEMENT, TYPE=C3D3
7588, 5230, 5232, 5270
*ELEMENT, TYPE=C3D3
7589, 5353, 5396, 5394
*ELEMENT, TYPE=C3D3
7590, 5316, 5277, 5320
*ELEMENT, TYPE=C3D3
7591, 5314, 5274, 5316
*ELEMENT, TYPE=C3D3
7592, 5230, 5270, 5268
*ELEMENT, TYPE=C3D3
7593, 5353, 5394, 5351
*ELEMENT, TYPE=C3D3
7594, 5314, 5316, 5358
*ELEMENT, TYPE=C3D3
7595, 5268, 5270, 5313
*ELEMENT, TYPE=C3D3
7596, 5351, 5394, 5393
*ELEMENT, TYPE=C3D3
7597, 5353, 5351, 5313
*ELEMENT, TYPE=C3D3
7598, 5358, 5316, 5359
*ELEMENT, TYPE=C3D3
7599, 5313, 5270, 5314
*ELEMENT, TYPE=C3D3
7600, 5313, 5351, 5311
*ELEMENT, TYPE=C3D3
7601, 5353, 5313, 5314
*ELEMENT, TYPE=C3D3
7602, 5359, 5316, 5320
*ELEMENT, TYPE=C3D3
7603, 5313, 5311, 5268
*ELEMENT, TYPE=C3D3
7604, 5353, 5314, 5358
*ELEMENT, TYPE=C3D3
7605, 5359, 5320, 5362
*ELEMENT, TYPE=C3D3
7606, 5442, 5406, 5449
*ELEMENT, TYPE=C3D3
7607, 5449, 5406, 5413
*ELEMENT, TYPE=C3D3
7608, 5413, 5406, 5367
*ELEMENT, TYPE=C3D3
7609, 5449, 5413, 5456
*ELEMENT, TYPE=C3D3
7610, 5367, 5406, 5361
*ELEMENT, TYPE=C3D3
7611, 5456, 5413, 5417
*ELEMENT, TYPE=C3D3
7612, 5456, 5417, 5461
*ELEMENT, TYPE=C3D3
7613, 5461, 5417, 5426
*ELEMENT, TYPE=C3D3
7614, 5461, 5426, 5469
*ELEMENT, TYPE=C3D3
7615, 5469, 5426, 5433
*ELEMENT, TYPE=C3D3
7616, 5469, 5433, 5479
*ELEMENT, TYPE=C3D3
7617, 5479, 5433, 5443
*ELEMENT, TYPE=C3D3
7618, 5479, 5443, 5489
*ELEMENT, TYPE=C3D3
7619, 5489, 5443, 5452
*ELEMENT, TYPE=C3D3
7620, 5256, 5213, 5217
*ELEMENT, TYPE=C3D3
7621, 5256, 5217, 5260
*ELEMENT, TYPE=C3D3
7622, 5155, 5152, 5112
*ELEMENT, TYPE=C3D3
7623, 5112, 5152, 5108
*ELEMENT, TYPE=C3D3
7624, 5155, 5112, 5115
*ELEMENT, TYPE=C3D3
7625, 5108, 5152, 5150
*ELEMENT, TYPE=C3D3
7626, 5112, 5108, 5070
*ELEMENT, TYPE=C3D3
7627, 5115, 5112, 5073
*ELEMENT, TYPE=C3D3
7628, 5108, 5150, 5106
*ELEMENT, TYPE=C3D3
7629, 5112, 5070, 5073
*ELEMENT, TYPE=C3D3
7630, 5106, 5150, 5148
*ELEMENT, TYPE=C3D3
7631, 5108, 5106, 5068
*ELEMENT, TYPE=C3D3
7632, 5073, 5070, 5032
*ELEMENT, TYPE=C3D3
7633, 5148, 5150, 5189
*ELEMENT, TYPE=C3D3
7634, 5106, 5148, 5105
*ELEMENT, TYPE=C3D3
7635, 5068, 5106, 5063
*ELEMENT, TYPE=C3D3
7636, 5032, 5070, 5027
*ELEMENT, TYPE=C3D3
7637, 5189, 5150, 5192
*ELEMENT, TYPE=C3D3
7638, 5105, 5148, 5144
*ELEMENT, TYPE=C3D3
7639, 5063, 5106, 5105
*ELEMENT, TYPE=C3D3
7640, 5027, 5070, 5068
*ELEMENT, TYPE=C3D3
7641, 5192, 5150, 5152
*ELEMENT, TYPE=C3D3
7642, 5144, 5148, 5186
*ELEMENT, TYPE=C3D3
7643, 5063, 5105, 5062
*ELEMENT, TYPE=C3D3
7644, 5068, 5070, 5108
*ELEMENT, TYPE=C3D3
7645, 5186, 5148, 5189
*ELEMENT, TYPE=C3D3
7646, 5063, 5062, 5024
*ELEMENT, TYPE=C3D3
7647, 5186, 5189, 5230
*ELEMENT, TYPE=C3D3
7648, 5063, 5024, 5025
*ELEMENT, TYPE=C3D3
7649, 5186, 5230, 5227
*ELEMENT, TYPE=C3D3
7650, 5025, 5024, 4982
*ELEMENT, TYPE=C3D3
7651, 5227, 5230, 5268
*ELEMENT, TYPE=C3D3
7652, 4982, 5024, 4980
*ELEMENT, TYPE=C3D3
7653, 5025, 4982, 4986
*ELEMENT, TYPE=C3D3
7654, 4982, 4980, 4940
*ELEMENT, TYPE=C3D3
7655, 5025, 4986, 5027
*ELEMENT, TYPE=C3D3
7656, 4940, 4980, 4935
*ELEMENT, TYPE=C3D3
7657, 5025, 5027, 5068
*ELEMENT, TYPE=C3D3
7658, 5025, 5068, 5063
*ELEMENT, TYPE=C3D3
7659, 5115, 5073, 5077
*ELEMENT, TYPE=C3D3
7660, 5115, 5077, 5120
*ELEMENT, TYPE=C3D3
7661, 1679, 1621, 1635
*ELEMENT, TYPE=C3D3
7662, 927, 919, 874
*ELEMENT, TYPE=C3D3
7663, 927, 874, 885
*ELEMENT, TYPE=C3D3
7664, 885, 874, 833
*ELEMENT, TYPE=C3D3
7665, 927, 885, 939
*ELEMENT, TYPE=C3D3
7666, 833, 874, 825
*ELEMENT, TYPE=C3D3
7667, 885, 833, 840
*ELEMENT, TYPE=C3D3
7668, 939, 885, 893
*ELEMENT, TYPE=C3D3
7669, 833, 825, 781
*ELEMENT, TYPE=C3D3
7670, 885, 840, 893
*ELEMENT, TYPE=C3D3
7671, 833, 781, 789
*ELEMENT, TYPE=C3D3
7672, 893, 840, 856
*ELEMENT, TYPE=C3D3
7673, 789, 781, 741
*ELEMENT, TYPE=C3D3
7674, 833, 789, 840
*ELEMENT, TYPE=C3D3
7675, 856, 840, 801
*ELEMENT, TYPE=C3D3
7676, 741, 781, 733
*ELEMENT, TYPE=C3D3
7677, 789, 741, 751
*ELEMENT, TYPE=C3D3
7678, 840, 789, 801
*ELEMENT, TYPE=C3D3
7679, 856, 801, 816
*ELEMENT, TYPE=C3D3
7680, 741, 733, 694
*ELEMENT, TYPE=C3D3
7681, 751, 741, 702
*ELEMENT, TYPE=C3D3
7682, 801, 789, 751
*ELEMENT, TYPE=C3D3
7683, 856, 816, 869
*ELEMENT, TYPE=C3D3
7684, 694, 733, 685
*ELEMENT, TYPE=C3D3
7685, 702, 741, 694
*ELEMENT, TYPE=C3D3
7686, 801, 751, 764
*ELEMENT, TYPE=C3D3
7687, 869, 816, 834
*ELEMENT, TYPE=C3D3
7688, 702, 694, 655
*ELEMENT, TYPE=C3D3
7689, 764, 751, 715
*ELEMENT, TYPE=C3D3
7690, 801, 764, 816
*ELEMENT, TYPE=C3D3
7691, 834, 816, 780
*ELEMENT, TYPE=C3D3
7692, 702, 655, 666
*ELEMENT, TYPE=C3D3
7693, 715, 751, 702
*ELEMENT, TYPE=C3D3
7694, 816, 764, 780
*ELEMENT, TYPE=C3D3
7695, 834, 780, 794
*ELEMENT, TYPE=C3D3
7696, 702, 666, 715
*ELEMENT, TYPE=C3D3
7697, 780, 764, 728
*ELEMENT, TYPE=C3D3
7698, 834, 794, 847
*ELEMENT, TYPE=C3D3
7699, 715, 666, 680
*ELEMENT, TYPE=C3D3
7700, 728, 764, 715
*ELEMENT, TYPE=C3D3
7701, 780, 728, 744
*ELEMENT, TYPE=C3D3
7702, 847, 794, 811
*ELEMENT, TYPE=C3D3
7703, 680, 666, 632
*ELEMENT, TYPE=C3D3
7704, 744, 728, 695
*ELEMENT, TYPE=C3D3
7705, 780, 744, 794
*ELEMENT, TYPE=C3D3
7706, 811, 794, 759
*ELEMENT, TYPE=C3D3
7707, 680, 632, 646
*ELEMENT, TYPE=C3D3
7708, 695, 728, 680
*ELEMENT, TYPE=C3D3
7709, 794, 744, 759
*ELEMENT, TYPE=C3D3
7710, 680, 646, 695
*ELEMENT, TYPE=C3D3
7711, 680, 728, 715
*ELEMENT, TYPE=C3D3
7712, 759, 744, 705
*ELEMENT, TYPE=C3D3
7713, 695, 646, 658
*ELEMENT, TYPE=C3D3
7714, 705, 744, 695
*ELEMENT, TYPE=C3D3
7715, 759, 705, 730
*ELEMENT, TYPE=C3D3
7716, 658, 646, 613
*ELEMENT, TYPE=C3D3
7717, 705, 695, 658
*ELEMENT, TYPE=C3D3
7718, 730, 705, 679
*ELEMENT, TYPE=C3D3
7719, 759, 730, 782
*ELEMENT, TYPE=C3D3
7720, 658, 613, 630
*ELEMENT, TYPE=C3D3
7721, 705, 658, 679
*ELEMENT, TYPE=C3D3
7722, 782, 730, 749
*ELEMENT, TYPE=C3D3
7723, 630, 613, 581
*ELEMENT, TYPE=C3D3
7724, 679, 658, 630
*ELEMENT, TYPE=C3D3
7725, 749, 730, 699
*ELEMENT, TYPE=C3D3
7726, 782, 749, 800
*ELEMENT, TYPE=C3D3
7727, 581, 613, 569
*ELEMENT, TYPE=C3D3
7728, 679, 630, 651
*ELEMENT, TYPE=C3D3
7729, 699, 730, 679
*ELEMENT, TYPE=C3D3
7730, 800, 749, 772
*ELEMENT, TYPE=C3D3
7731, 581, 569, 538
*ELEMENT, TYPE=C3D3
7732, 651, 630, 602
*ELEMENT, TYPE=C3D3
7733, 699, 679, 651
*ELEMENT, TYPE=C3D3
7734, 772, 749, 721
*ELEMENT, TYPE=C3D3
7735, 538, 569, 524
*ELEMENT, TYPE=C3D3
7736, 602, 630, 581
*ELEMENT, TYPE=C3D3
7737, 699, 651, 669
*ELEMENT, TYPE=C3D3
7738, 721, 749, 699
*ELEMENT, TYPE=C3D3
7739, 602, 581, 556
*ELEMENT, TYPE=C3D3
7740, 669, 651, 622
*ELEMENT, TYPE=C3D3
7741, 721, 699, 669
*ELEMENT, TYPE=C3D3
7742, 556, 581, 538
*ELEMENT, TYPE=C3D3
7743, 602, 556, 577
*ELEMENT, TYPE=C3D3
7744, 622, 651, 602
*ELEMENT, TYPE=C3D3
7745, 577, 556, 532
*ELEMENT, TYPE=C3D3
7746, 602, 577, 622
*ELEMENT, TYPE=C3D3
7747, 577, 532, 549
*ELEMENT, TYPE=C3D3
7748, 622, 577, 595
*ELEMENT, TYPE=C3D3
7749, 549, 532, 504
*ELEMENT, TYPE=C3D3
7750, 577, 549, 595
*ELEMENT, TYPE=C3D3
7751, 622, 595, 642
*ELEMENT, TYPE=C3D3
7752, 504, 532, 489
*ELEMENT, TYPE=C3D3
7753, 595, 549, 571
*ELEMENT, TYPE=C3D3
7754, 642, 595, 617
*ELEMENT, TYPE=C3D3
7755, 622, 642, 669
*ELEMENT, TYPE=C3D3
7756, 504, 489, 464
*ELEMENT, TYPE=C3D3
7757, 669, 642, 690
*ELEMENT, TYPE=C3D3
7758, 464, 489, 450
*ELEMENT, TYPE=C3D3
7759, 504, 464, 482
*ELEMENT, TYPE=C3D3
7760, 690, 642, 663
*ELEMENT, TYPE=C3D3
7761, 669, 690, 721
*ELEMENT, TYPE=C3D3
7762, 464, 450, 426
*ELEMENT, TYPE=C3D3
7763, 721, 690, 743
*ELEMENT, TYPE=C3D3
7764, 426, 450, 409
*ELEMENT, TYPE=C3D3
7765, 464, 426, 443
*ELEMENT, TYPE=C3D3
7766, 743, 690, 714
*ELEMENT, TYPE=C3D3
7767, 721, 743, 772
*ELEMENT, TYPE=C3D3
7768, 409, 450, 430
*ELEMENT, TYPE=C3D3
7769, 772, 743, 793
*ELEMENT, TYPE=C3D3
7770, 409, 430, 392
*ELEMENT, TYPE=C3D3
7771, 793, 743, 768
*ELEMENT, TYPE=C3D3
7772, 772, 793, 827
*ELEMENT, TYPE=C3D3
7773, 409, 392, 369
*ELEMENT, TYPE=C3D3
7774, 827, 793, 846
*ELEMENT, TYPE=C3D3
7775, 772, 827, 800
*ELEMENT, TYPE=C3D3
7776, 409, 369, 387
*ELEMENT, TYPE=C3D3
7777, 846, 793, 820
*ELEMENT, TYPE=C3D3
7778, 800, 827, 858
*ELEMENT, TYPE=C3D3
7779, 409, 387, 426
*ELEMENT, TYPE=C3D3
7780, 858, 827, 881
*ELEMENT, TYPE=C3D3
7781, 800, 858, 835
*ELEMENT, TYPE=C3D3
7782, 426, 387, 400
*ELEMENT, TYPE=C3D3
7783, 881, 827, 846
*ELEMENT, TYPE=C3D3
7784, 858, 881, 914
*ELEMENT, TYPE=C3D3
7785, 835, 858, 888
*ELEMENT, TYPE=C3D3
7786, 881, 846, 906
*ELEMENT, TYPE=C3D3
7787, 914, 881, 938
*ELEMENT, TYPE=C3D3
7788, 858, 914, 888
*ELEMENT, TYPE=C3D3
7789, 906, 846, 878
*ELEMENT, TYPE=C3D3
7790, 938, 881, 906
*ELEMENT, TYPE=C3D3
7791, 888, 914, 945
*ELEMENT, TYPE=C3D3
7792, 938, 906, 963
*ELEMENT, TYPE=C3D3
7793, 945, 914, 972
*ELEMENT, TYPE=C3D3
7794, 888, 945, 923
*ELEMENT, TYPE=C3D3
7795, 963, 906, 933
*ELEMENT, TYPE=C3D3
7796, 938, 963, 995
*ELEMENT, TYPE=C3D3
7797, 972, 914, 938
*ELEMENT, TYPE=C3D3
7798, 923, 945, 983
*ELEMENT, TYPE=C3D3
7799, 995, 963, 1025
*ELEMENT, TYPE=C3D3
7800, 938, 995, 972
*ELEMENT, TYPE=C3D3
7801, 983, 945, 1005
*ELEMENT, TYPE=C3D3
7802, 923, 983, 961
*ELEMENT, TYPE=C3D3
7803, 1025, 963, 990
*ELEMENT, TYPE=C3D3
7804, 972, 995, 1034
*ELEMENT, TYPE=C3D3
7805, 1005, 945, 972
*ELEMENT, TYPE=C3D3
7806, 961, 983, 1022
*ELEMENT, TYPE=C3D3
7807, 1034, 995, 1056
*ELEMENT, TYPE=C3D3
7808, 972, 1034, 1005
*ELEMENT, TYPE=C3D3
7809, 1022, 983, 1041
*ELEMENT, TYPE=C3D3
7810, 961, 1022, 997
*ELEMENT, TYPE=C3D3
7811, 1056, 995, 1025
*ELEMENT, TYPE=C3D3
7812, 1005, 1034, 1067
*ELEMENT, TYPE=C3D3
7813, 1022, 1041, 1082
*ELEMENT, TYPE=C3D3
7814, 997, 1022, 1061
*ELEMENT, TYPE=C3D3
7815, 1067, 1034, 1093
*ELEMENT, TYPE=C3D3
7816, 1005, 1067, 1041
*ELEMENT, TYPE=C3D3
7817, 1082, 1041, 1100
*ELEMENT, TYPE=C3D3
7818, 1061, 1022, 1082
*ELEMENT, TYPE=C3D3
7819, 1093, 1034, 1056
*ELEMENT, TYPE=C3D3
7820, 1041, 1067, 1100
*ELEMENT, TYPE=C3D3
7821, 1061, 1082, 1123
*ELEMENT, TYPE=C3D3
7822, 1100, 1067, 1133
*ELEMENT, TYPE=C3D3
7823, 1123, 1082, 1143
*ELEMENT, TYPE=C3D3
7824, 1061, 1123, 1099
*ELEMENT, TYPE=C3D3
7825, 1133, 1067, 1093
*ELEMENT, TYPE=C3D3
7826, 1100, 1133, 1167
*ELEMENT, TYPE=C3D3
7827, 1143, 1082, 1100
*ELEMENT, TYPE=C3D3
7828, 1099, 1123, 1163
*ELEMENT, TYPE=C3D3
7829, 1167, 1133, 1196
*ELEMENT, TYPE=C3D3
7830, 1100, 1167, 1143
*ELEMENT, TYPE=C3D3
7831, 1163, 1123, 1188
*ELEMENT, TYPE=C3D3
7832, 1099, 1163, 1146
*ELEMENT, TYPE=C3D3
7833, 1196, 1133, 1154
*ELEMENT, TYPE=C3D3
7834, 1143, 1167, 1207
*ELEMENT, TYPE=C3D3
7835, 1188, 1123, 1143
*ELEMENT, TYPE=C3D3
7836, 1146, 1163, 1209
*ELEMENT, TYPE=C3D3
7837, 1154, 1133, 1093
*ELEMENT, TYPE=C3D3
7838, 1207, 1167, 1233
*ELEMENT, TYPE=C3D3
7839, 1209, 1163, 1227
*ELEMENT, TYPE=C3D3
7840, 1146, 1209, 1194
*ELEMENT, TYPE=C3D3
7841, 1233, 1167, 1196
*ELEMENT, TYPE=C3D3
7842, 1227, 1163, 1188
*ELEMENT, TYPE=C3D3
7843, 1146, 1194, 1131
*ELEMENT, TYPE=C3D3
7844, 1227, 1188, 1254
*ELEMENT, TYPE=C3D3
7845, 1131, 1194, 1173
*ELEMENT, TYPE=C3D3
7846, 1254, 1188, 1207
*ELEMENT, TYPE=C3D3
7847, 1227, 1254, 1295
*ELEMENT, TYPE=C3D3
7848, 1173, 1194, 1238
*ELEMENT, TYPE=C3D3
7849, 1207, 1188, 1143
*ELEMENT, TYPE=C3D3
7850, 1295, 1254, 1319
*ELEMENT, TYPE=C3D3
7851, 1238, 1194, 1257
*ELEMENT, TYPE=C3D3
7852, 1319, 1254, 1272
*ELEMENT, TYPE=C3D3
7853, 1257, 1194, 1209
*ELEMENT, TYPE=C3D3
7854, 1272, 1254, 1207
*ELEMENT, TYPE=C3D3
7855, 1319, 1272, 1340
*ELEMENT, TYPE=C3D3
7856, 1272, 1207, 1233
*ELEMENT, TYPE=C3D3
7857, 1340, 1272, 1300
*ELEMENT, TYPE=C3D3
7858, 1272, 1233, 1300
*ELEMENT, TYPE=C3D3
7859, 1300, 1233, 1263
*ELEMENT, TYPE=C3D3
7860, 1263, 1233, 1196
*ELEMENT, TYPE=C3D3
7861, 1300, 1263, 1329
*ELEMENT, TYPE=C3D3
7862, 1263, 1196, 1220
*ELEMENT, TYPE=C3D3
7863, 1329, 1263, 1290
*ELEMENT, TYPE=C3D3
7864, 1220, 1196, 1154
*ELEMENT, TYPE=C3D3
7865, 1263, 1220, 1290
*ELEMENT, TYPE=C3D3
7866, 1220, 1154, 1185
*ELEMENT, TYPE=C3D3
7867, 1290, 1220, 1252
*ELEMENT, TYPE=C3D3
7868, 1185, 1154, 1121
*ELEMENT, TYPE=C3D3
7869, 1220, 1185, 1252
*ELEMENT, TYPE=C3D3
7870, 1121, 1154, 1093
*ELEMENT, TYPE=C3D3
7871, 1252, 1185, 1213
*ELEMENT, TYPE=C3D3
7872, 1121, 1093, 1056
*ELEMENT, TYPE=C3D3
7873, 1213, 1185, 1150
*ELEMENT, TYPE=C3D3
7874, 1121, 1056, 1086
*ELEMENT, TYPE=C3D3
7875, 1150, 1185, 1121
*ELEMENT, TYPE=C3D3
7876, 1086, 1056, 1025
*ELEMENT, TYPE=C3D3
7877, 1121, 1086, 1150
*ELEMENT, TYPE=C3D3
7878, 1086, 1025, 1049
*ELEMENT, TYPE=C3D3
7879, 1150, 1086, 1115
*ELEMENT, TYPE=C3D3
7880, 1257, 1209, 1271
*ELEMENT, TYPE=C3D3
7881, 1271, 1209, 1227
*ELEMENT, TYPE=C3D3
7882, 1257, 1271, 1322
*ELEMENT, TYPE=C3D3
7883, 1271, 1227, 1295
*ELEMENT, TYPE=C3D3
7884, 1322, 1271, 1339
*ELEMENT, TYPE=C3D3
7885, 1339, 1271, 1295
*ELEMENT, TYPE=C3D3
7886, 1322, 1339, 1389
*ELEMENT, TYPE=C3D3
7887, 1389, 1339, 1417
*ELEMENT, TYPE=C3D3
7888, 1322, 1389, 1372
*ELEMENT, TYPE=C3D3
7889, 1417, 1339, 1364
*ELEMENT, TYPE=C3D3
7890, 1372, 1389, 1437
*ELEMENT, TYPE=C3D3
7891, 1322, 1372, 1305
*ELEMENT, TYPE=C3D3
7892, 1364, 1339, 1295
*ELEMENT, TYPE=C3D3
7893, 1437, 1389, 1456
*ELEMENT, TYPE=C3D3
7894, 1322, 1305, 1257
*ELEMENT, TYPE=C3D3
7895, 1364, 1295, 1319
*ELEMENT, TYPE=C3D3
7896, 1456, 1389, 1417
*ELEMENT, TYPE=C3D3
7897, 1257, 1305, 1238
*ELEMENT, TYPE=C3D3
7898, 1456, 1417, 1508
*ELEMENT, TYPE=C3D3
7899, 1340, 1300, 1374
*ELEMENT, TYPE=C3D3
7900, 1374, 1300, 1329
*ELEMENT, TYPE=C3D3
7901, 1340, 1374, 1410
*ELEMENT, TYPE=C3D3
7902, 1374, 1329, 1395
*ELEMENT, TYPE=C3D3
7903, 1410, 1374, 1473
*ELEMENT, TYPE=C3D3
7904, 1395, 1329, 1359
*ELEMENT, TYPE=C3D3
7905, 1374, 1395, 1473
*ELEMENT, TYPE=C3D3
7906, 1359, 1329, 1290
*ELEMENT, TYPE=C3D3
7907, 1395, 1359, 1461
*ELEMENT, TYPE=C3D3
7908, 1359, 1290, 1318
*ELEMENT, TYPE=C3D3
7909, 1318, 1290, 1252
*ELEMENT, TYPE=C3D3
7910, 1359, 1318, 1388
*ELEMENT, TYPE=C3D3
7911, 1388, 1318, 1355
*ELEMENT, TYPE=C3D3
7912, 1359, 1388, 1461
*ELEMENT, TYPE=C3D3
7913, 1355, 1318, 1281
*ELEMENT, TYPE=C3D3
7914, 1281, 1318, 1252
*ELEMENT, TYPE=C3D3
7915, 1355, 1281, 1315
*ELEMENT, TYPE=C3D3
7916, 1281, 1252, 1213
*ELEMENT, TYPE=C3D3
7917, 1281, 1213, 1247
*ELEMENT, TYPE=C3D3
7918, 1364, 1319, 1405
*ELEMENT, TYPE=C3D3
7919, 1405, 1319, 1340
*ELEMENT, TYPE=C3D3
7920, 1364, 1405, 1436
*ELEMENT, TYPE=C3D3
7921, 1405, 1340, 1410
*ELEMENT, TYPE=C3D3
7922, 1436, 1405, 1498
*ELEMENT, TYPE=C3D3
7923, 1405, 1487, 1498
*ELEMENT, TYPE=C3D3
7924, 1364, 1436, 1417
*ELEMENT, TYPE=C3D3
7925, 1417, 1436, 1508
*ELEMENT, TYPE=C3D3
7926, 927, 939, 982
*ELEMENT, TYPE=C3D3
7927, 982, 939, 994
*ELEMENT, TYPE=C3D3
7928, 994, 939, 951
*ELEMENT, TYPE=C3D3
7929, 951, 939, 893
*ELEMENT, TYPE=C3D3
7930, 994, 951, 1010
*ELEMENT, TYPE=C3D3
7931, 951, 893, 910
*ELEMENT, TYPE=C3D3
7932, 1010, 951, 968
*ELEMENT, TYPE=C3D3
7933, 994, 1010, 1051
*ELEMENT, TYPE=C3D3
7934, 910, 893, 856
*ELEMENT, TYPE=C3D3
7935, 968, 951, 910
*ELEMENT, TYPE=C3D3
7936, 1051, 1010, 1070
*ELEMENT, TYPE=C3D3
7937, 910, 856, 869
*ELEMENT, TYPE=C3D3
7938, 968, 910, 924
*ELEMENT, TYPE=C3D3
7939, 1070, 1010, 1027
*ELEMENT, TYPE=C3D3
7940, 1051, 1070, 1111
*ELEMENT, TYPE=C3D3
7941, 910, 869, 924
*ELEMENT, TYPE=C3D3
7942, 1027, 1010, 968
*ELEMENT, TYPE=C3D3
7943, 1111, 1070, 1131
*ELEMENT, TYPE=C3D3
7944, 924, 869, 887
*ELEMENT, TYPE=C3D3
7945, 1027, 968, 981
*ELEMENT, TYPE=C3D3
7946, 1131, 1070, 1085
*ELEMENT, TYPE=C3D3
7947, 1111, 1131, 1173
*ELEMENT, TYPE=C3D3
7948, 887, 869, 834
*ELEMENT, TYPE=C3D3
7949, 981, 968, 924
*ELEMENT, TYPE=C3D3
7950, 1085, 1070, 1027
*ELEMENT, TYPE=C3D3
7951, 887, 834, 847
*ELEMENT, TYPE=C3D3
7952, 981, 924, 941
*ELEMENT, TYPE=C3D3
7953, 1085, 1027, 1040
*ELEMENT, TYPE=C3D3
7954, 887, 847, 904
*ELEMENT, TYPE=C3D3
7955, 941, 924, 887
*ELEMENT, TYPE=C3D3
7956, 981, 941, 997
*ELEMENT, TYPE=C3D3
7957, 1040, 1027, 981
*ELEMENT, TYPE=C3D3
7958, 904, 847, 867
*ELEMENT, TYPE=C3D3
7959, 941, 887, 904
*ELEMENT, TYPE=C3D3
7960, 997, 941, 961
*ELEMENT, TYPE=C3D3
7961, 867, 847, 811
*ELEMENT, TYPE=C3D3
7962, 904, 867, 923
*ELEMENT, TYPE=C3D3
7963, 941, 904, 961
*ELEMENT, TYPE=C3D3
7964, 923, 867, 888
*ELEMENT, TYPE=C3D3
7965, 961, 904, 923
*ELEMENT, TYPE=C3D3
7966, 888, 867, 835
*ELEMENT, TYPE=C3D3
7967, 835, 867, 811
*ELEMENT, TYPE=C3D3
7968, 835, 811, 782
*ELEMENT, TYPE=C3D3
7969, 782, 811, 759
*ELEMENT, TYPE=C3D3
7970, 800, 835, 782
*ELEMENT, TYPE=C3D3
7971, 1085, 1040, 1099
*ELEMENT, TYPE=C3D3
7972, 1099, 1040, 1061
*ELEMENT, TYPE=C3D3
7973, 1085, 1099, 1146
*ELEMENT, TYPE=C3D3
7974, 1061, 1040, 997
*ELEMENT, TYPE=C3D3
7975, 1085, 1146, 1131
*ELEMENT, TYPE=C3D3
7976, 997, 1040, 981
*ELEMENT, TYPE=C3D3
7977, 5122, 5167, 5162
*ELEMENT, TYPE=C3D3
7978, 5122, 5162, 5120
*ELEMENT, TYPE=C3D3
7979, 107, 89, 93
*ELEMENT, TYPE=C3D3
7980, 93, 89, 78
*ELEMENT, TYPE=C3D3
7981, 78, 89, 72
*ELEMENT, TYPE=C3D3
7982, 72, 89, 87
*ELEMENT, TYPE=C3D3
7983, 78, 72, 63
*ELEMENT, TYPE=C3D3
7984, 72, 87, 71
*ELEMENT, TYPE=C3D3
7985, 63, 72, 61
*ELEMENT, TYPE=C3D3
7986, 78, 63, 65
*ELEMENT, TYPE=C3D3
7987, 72, 71, 61
*ELEMENT, TYPE=C3D3
7988, 63, 61, 49
*ELEMENT, TYPE=C3D3
7989, 61, 71, 62
*ELEMENT, TYPE=C3D3
7990, 49, 61, 48
*ELEMENT, TYPE=C3D3
7991, 62, 71, 77
*ELEMENT, TYPE=C3D3
7992, 61, 62, 48
*ELEMENT, TYPE=C3D3
7993, 49, 48, 37
*ELEMENT, TYPE=C3D3
7994, 48, 62, 50
*ELEMENT, TYPE=C3D3
7995, 37, 48, 38
*ELEMENT, TYPE=C3D3
7996, 48, 50, 38
*ELEMENT, TYPE=C3D3
7997, 37, 38, 28
*ELEMENT, TYPE=C3D3
7998, 38, 50, 41
*ELEMENT, TYPE=C3D3
7999, 28, 38, 30
*ELEMENT, TYPE=C3D3
8000, 41, 50, 54
*ELEMENT, TYPE=C3D3
8001, 38, 41, 30
*ELEMENT, TYPE=C3D3
8002, 41, 54, 44
*ELEMENT, TYPE=C3D3
8003, 3944, 3893, 3898
*ELEMENT, TYPE=C3D3
8004, 3438, 3390, 3399
*ELEMENT, TYPE=C3D3
8005, 3399, 3390, 3355
*ELEMENT, TYPE=C3D3
8006, 3438, 3399, 3446
*ELEMENT, TYPE=C3D3
8007, 3355, 3390, 3345
*ELEMENT, TYPE=C3D3
8008, 3446, 3399, 3407
*ELEMENT, TYPE=C3D3
8009, 3438, 3446, 3485
*ELEMENT, TYPE=C3D3
8010, 3345, 3390, 3385
*ELEMENT, TYPE=C3D3
8011, 3407, 3399, 3361
*ELEMENT, TYPE=C3D3
8012, 3446, 3407, 3452
*ELEMENT, TYPE=C3D3
8013, 3345, 3385, 3340
*ELEMENT, TYPE=C3D3
8014, 3407, 3361, 3367
*ELEMENT, TYPE=C3D3
8015, 3452, 3407, 3419
*ELEMENT, TYPE=C3D3
8016, 3345, 3340, 3302
*ELEMENT, TYPE=C3D3
8017, 3367, 3361, 3323
*ELEMENT, TYPE=C3D3
8018, 3419, 3407, 3367
*ELEMENT, TYPE=C3D3
8019, 3345, 3302, 3308
*ELEMENT, TYPE=C3D3
8020, 3323, 3361, 3317
*ELEMENT, TYPE=C3D3
8021, 3308, 3302, 3262
*ELEMENT, TYPE=C3D3
8022, 3345, 3308, 3355
*ELEMENT, TYPE=C3D3
8023, 3317, 3361, 3355
*ELEMENT, TYPE=C3D3
8024, 3262, 3302, 3257
*ELEMENT, TYPE=C3D3
8025, 3355, 3308, 3317
*ELEMENT, TYPE=C3D3
8026, 3355, 3361, 3399
*ELEMENT, TYPE=C3D3
8027, 3262, 3257, 3216
*ELEMENT, TYPE=C3D3
8028, 3317, 3308, 3271
*ELEMENT, TYPE=C3D3
8029, 3216, 3257, 3211
*ELEMENT, TYPE=C3D3
8030, 3262, 3216, 3225
*ELEMENT, TYPE=C3D3
8031, 3271, 3308, 3262
*ELEMENT, TYPE=C3D3
8032, 3216, 3211, 3173
*ELEMENT, TYPE=C3D3
8033, 3225, 3216, 3180
*ELEMENT, TYPE=C3D3
8034, 3216, 3173, 3180
*ELEMENT, TYPE=C3D3
8035, 3225, 3180, 3186
*ELEMENT, TYPE=C3D3
8036, 3180, 3173, 3132
*ELEMENT, TYPE=C3D3
8037, 3186, 3180, 3140
*ELEMENT, TYPE=C3D3
8038, 3225, 3186, 3231
*ELEMENT, TYPE=C3D3
8039, 3180, 3132, 3140
*ELEMENT, TYPE=C3D3
8040, 3231, 3186, 3193
*ELEMENT, TYPE=C3D3
8041, 3140, 3132, 3093
*ELEMENT, TYPE=C3D3
8042, 3193, 3186, 3146
*ELEMENT, TYPE=C3D3
8043, 3231, 3193, 3239
*ELEMENT, TYPE=C3D3
8044, 3093, 3132, 3087
*ELEMENT, TYPE=C3D3
8045, 3146, 3186, 3140
*ELEMENT, TYPE=C3D3
8046, 3193, 3146, 3153
*ELEMENT, TYPE=C3D3
8047, 3239, 3193, 3203
*ELEMENT, TYPE=C3D3
8048, 3093, 3087, 3048
*ELEMENT, TYPE=C3D3
8049, 3146, 3140, 3100
*ELEMENT, TYPE=C3D3
8050, 3153, 3146, 3107
*ELEMENT, TYPE=C3D3
8051, 3203, 3193, 3153
*ELEMENT, TYPE=C3D3
8052, 3048, 3087, 3042
*ELEMENT, TYPE=C3D3
8053, 3100, 3140, 3093
*ELEMENT, TYPE=C3D3
8054, 3107, 3146, 3100
*ELEMENT, TYPE=C3D3
8055, 3203, 3153, 3168
*ELEMENT, TYPE=C3D3
8056, 3042, 3087, 3079
*ELEMENT, TYPE=C3D3
8057, 3100, 3093, 3053
*ELEMENT, TYPE=C3D3
8058, 3107, 3100, 3063
*ELEMENT, TYPE=C3D3
8059, 3168, 3153, 3119
*ELEMENT, TYPE=C3D3
8060, 3042, 3079, 3033
*ELEMENT, TYPE=C3D3
8061, 3053, 3093, 3048
*ELEMENT, TYPE=C3D3
8062, 3063, 3100, 3053
*ELEMENT, TYPE=C3D3
8063, 3119, 3153, 3107
*ELEMENT, TYPE=C3D3
8064, 3033, 3079, 3068
*ELEMENT, TYPE=C3D3
8065, 3053, 3048, 3008
*ELEMENT, TYPE=C3D3
8066, 3119, 3107, 3067
*ELEMENT, TYPE=C3D3
8067, 3068, 3079, 3117
*ELEMENT, TYPE=C3D3
8068, 3008, 3048, 3001
*ELEMENT, TYPE=C3D3
8069, 3067, 3107, 3063
*ELEMENT, TYPE=C3D3
8070, 3119, 3067, 3084
*ELEMENT, TYPE=C3D3
8071, 3001, 3048, 3042
*ELEMENT, TYPE=C3D3
8072, 3008, 3001, 2961
*ELEMENT, TYPE=C3D3
8073, 3067, 3063, 3023
*ELEMENT, TYPE=C3D3
8074, 3084, 3067, 3035
*ELEMENT, TYPE=C3D3
8075, 2961, 3001, 2954
*ELEMENT, TYPE=C3D3
8076, 3008, 2961, 2969
*ELEMENT, TYPE=C3D3
8077, 3023, 3063, 3016
*ELEMENT, TYPE=C3D3
8078, 3035, 3067, 3023
*ELEMENT, TYPE=C3D3
8079, 2954, 3001, 2994
*ELEMENT, TYPE=C3D3
8080, 2969, 2961, 2922
*ELEMENT, TYPE=C3D3
8081, 3016, 3063, 3053
*ELEMENT, TYPE=C3D3
8082, 3035, 3023, 2985
*ELEMENT, TYPE=C3D3
8083, 2994, 3001, 3042
*ELEMENT, TYPE=C3D3
8084, 2922, 2961, 2917
*ELEMENT, TYPE=C3D3
8085, 2985, 3023, 2977
*ELEMENT, TYPE=C3D3
8086, 3035, 2985, 2999
*ELEMENT, TYPE=C3D3
8087, 2917, 2961, 2954
*ELEMENT, TYPE=C3D3
8088, 2922, 2917, 2874
*ELEMENT, TYPE=C3D3
8089, 2977, 3023, 3016
*ELEMENT, TYPE=C3D3
8090, 2999, 2985, 2951
*ELEMENT, TYPE=C3D3
8091, 2874, 2917, 2871
*ELEMENT, TYPE=C3D3
8092, 2922, 2874, 2885
*ELEMENT, TYPE=C3D3
8093, 2951, 2985, 2936
*ELEMENT, TYPE=C3D3
8094, 2999, 2951, 2960
*ELEMENT, TYPE=C3D3
8095, 2871, 2917, 2908
*ELEMENT, TYPE=C3D3
8096, 2885, 2874, 2836
*ELEMENT, TYPE=C3D3
8097, 2936, 2985, 2977
*ELEMENT, TYPE=C3D3
8098, 2960, 2951, 2915
*ELEMENT, TYPE=C3D3
8099, 2908, 2917, 2954
*ELEMENT, TYPE=C3D3
8100, 2836, 2874, 2830
*ELEMENT, TYPE=C3D3
8101, 2915, 2951, 2904
*ELEMENT, TYPE=C3D3
8102, 2960, 2915, 2925
*ELEMENT, TYPE=C3D3
8103, 2830, 2874, 2871
*ELEMENT, TYPE=C3D3
8104, 2836, 2830, 2789
*ELEMENT, TYPE=C3D3
8105, 2904, 2951, 2936
*ELEMENT, TYPE=C3D3
8106, 2925, 2915, 2877
*ELEMENT, TYPE=C3D3
8107, 2789, 2830, 2785
*ELEMENT, TYPE=C3D3
8108, 2836, 2789, 2798
*ELEMENT, TYPE=C3D3
8109, 2877, 2915, 2868
*ELEMENT, TYPE=C3D3
8110, 2925, 2877, 2887
*ELEMENT, TYPE=C3D3
8111, 2785, 2830, 2824
*ELEMENT, TYPE=C3D3
8112, 2868, 2915, 2904
*ELEMENT, TYPE=C3D3
8113, 2925, 2887, 2934
*ELEMENT, TYPE=C3D3
8114, 2824, 2830, 2871
*ELEMENT, TYPE=C3D3
8115, 2868, 2904, 2851
*ELEMENT, TYPE=C3D3
8116, 2934, 2887, 2897
*ELEMENT, TYPE=C3D3
8117, 2824, 2871, 2861
*ELEMENT, TYPE=C3D3
8118, 2851, 2904, 2890
*ELEMENT, TYPE=C3D3
8119, 2897, 2887, 2848
*ELEMENT, TYPE=C3D3
8120, 2861, 2871, 2908
*ELEMENT, TYPE=C3D3
8121, 2851, 2890, 2846
*ELEMENT, TYPE=C3D3
8122, 2848, 2887, 2838
*ELEMENT, TYPE=C3D3
8123, 2846, 2890, 2885
*ELEMENT, TYPE=C3D3
8124, 2838, 2887, 2877
*ELEMENT, TYPE=C3D3
8125, 2848, 2838, 2802
*ELEMENT, TYPE=C3D3
8126, 2885, 2890, 2930
*ELEMENT, TYPE=C3D3
8127, 2802, 2838, 2791
*ELEMENT, TYPE=C3D3
8128, 2848, 2802, 2819
*ELEMENT, TYPE=C3D3
8129, 2930, 2890, 2936
*ELEMENT, TYPE=C3D3
8130, 2791, 2838, 2829
*ELEMENT, TYPE=C3D3
8131, 2819, 2802, 2768
*ELEMENT, TYPE=C3D3
8132, 2936, 2890, 2904
*ELEMENT, TYPE=C3D3
8133, 2829, 2838, 2877
*ELEMENT, TYPE=C3D3
8134, 2768, 2802, 2756
*ELEMENT, TYPE=C3D3
8135, 2829, 2877, 2868
*ELEMENT, TYPE=C3D3
8136, 2756, 2802, 2791
*ELEMENT, TYPE=C3D3
8137, 2829, 2868, 2822
*ELEMENT, TYPE=C3D3
8138, 2756, 2791, 2745
*ELEMENT, TYPE=C3D3
8139, 2822, 2868, 2851
*ELEMENT, TYPE=C3D3
8140, 2745, 2791, 2783
*ELEMENT, TYPE=C3D3
8141, 2756, 2745, 2706
*ELEMENT, TYPE=C3D3
8142, 2783, 2791, 2829
*ELEMENT, TYPE=C3D3
8143, 2745, 2783, 2733
*ELEMENT, TYPE=C3D3
8144, 2706, 2745, 2697
*ELEMENT, TYPE=C3D3
8145, 2733, 2783, 2771
*ELEMENT, TYPE=C3D3
8146, 2745, 2733, 2697
*ELEMENT, TYPE=C3D3
8147, 2771, 2783, 2822
*ELEMENT, TYPE=C3D3
8148, 2697, 2733, 2683
*ELEMENT, TYPE=C3D3
8149, 2822, 2783, 2829
*ELEMENT, TYPE=C3D3
8150, 2771, 2822, 2805
*ELEMENT, TYPE=C3D3
8151, 2683, 2733, 2721
*ELEMENT, TYPE=C3D3
8152, 2805, 2822, 2851
*ELEMENT, TYPE=C3D3
8153, 2771, 2805, 2760
*ELEMENT, TYPE=C3D3
8154, 2721, 2733, 2771
*ELEMENT, TYPE=C3D3
8155, 2805, 2851, 2846
*ELEMENT, TYPE=C3D3
8156, 2760, 2805, 2798
*ELEMENT, TYPE=C3D3
8157, 2721, 2771, 2760
*ELEMENT, TYPE=C3D3
8158, 2805, 2846, 2798
*ELEMENT, TYPE=C3D3
8159, 2798, 2846, 2836
*ELEMENT, TYPE=C3D3
8160, 2836, 2846, 2885
*ELEMENT, TYPE=C3D3
8161, 2798, 2789, 2751
*ELEMENT, TYPE=C3D3
8162, 2751, 2789, 2743
*ELEMENT, TYPE=C3D3
8163, 2798, 2751, 2760
*ELEMENT, TYPE=C3D3
8164, 2743, 2789, 2785
*ELEMENT, TYPE=C3D3
8165, 2760, 2751, 2714
*ELEMENT, TYPE=C3D3
8166, 2743, 2785, 2738
*ELEMENT, TYPE=C3D3
8167, 2714, 2751, 2703
*ELEMENT, TYPE=C3D3
8168, 2760, 2714, 2721
*ELEMENT, TYPE=C3D3
8169, 2738, 2785, 2778
*ELEMENT, TYPE=C3D3
8170, 2703, 2751, 2743
*ELEMENT, TYPE=C3D3
8171, 2721, 2714, 2672
*ELEMENT, TYPE=C3D3
8172, 2778, 2785, 2824
*ELEMENT, TYPE=C3D3
8173, 2672, 2714, 2667
*ELEMENT, TYPE=C3D3
8174, 2721, 2672, 2683
*ELEMENT, TYPE=C3D3
8175, 2667, 2714, 2703
*ELEMENT, TYPE=C3D3
8176, 2683, 2672, 2637
*ELEMENT, TYPE=C3D3
8177, 2637, 2672, 2627
*ELEMENT, TYPE=C3D3
8178, 2683, 2637, 2647
*ELEMENT, TYPE=C3D3
8179, 2627, 2672, 2667
*ELEMENT, TYPE=C3D3
8180, 2647, 2637, 2596
*ELEMENT, TYPE=C3D3
8181, 2683, 2647, 2697
*ELEMENT, TYPE=C3D3
8182, 2596, 2637, 2588
*ELEMENT, TYPE=C3D3
8183, 2647, 2596, 2609
*ELEMENT, TYPE=C3D3
8184, 2697, 2647, 2656
*ELEMENT, TYPE=C3D3
8185, 2596, 2588, 2550
*ELEMENT, TYPE=C3D3
8186, 2609, 2596, 2561
*ELEMENT, TYPE=C3D3
8187, 2656, 2647, 2609
*ELEMENT, TYPE=C3D3
8188, 2550, 2588, 2542
*ELEMENT, TYPE=C3D3
8189, 2561, 2596, 2550
*ELEMENT, TYPE=C3D3
8190, 2542, 2588, 2579
*ELEMENT, TYPE=C3D3
8191, 2550, 2542, 2503
*ELEMENT, TYPE=C3D3
8192, 2579, 2588, 2627
*ELEMENT, TYPE=C3D3
8193, 2542, 2579, 2532
*ELEMENT, TYPE=C3D3
8194, 2503, 2542, 2495
*ELEMENT, TYPE=C3D3
8195, 2627, 2588, 2637
*ELEMENT, TYPE=C3D3
8196, 2532, 2579, 2570
*ELEMENT, TYPE=C3D3
8197, 2495, 2542, 2532
*ELEMENT, TYPE=C3D3
8198, 2570, 2579, 2619
*ELEMENT, TYPE=C3D3
8199, 2619, 2579, 2627
*ELEMENT, TYPE=C3D3
8200, 2570, 2619, 2607
*ELEMENT, TYPE=C3D3
8201, 2619, 2627, 2667
*ELEMENT, TYPE=C3D3
8202, 2607, 2619, 2655
*ELEMENT, TYPE=C3D3
8203, 2655, 2619, 2667
*ELEMENT, TYPE=C3D3
8204, 2607, 2655, 2650
*ELEMENT, TYPE=C3D3
8205, 2650, 2655, 2698
*ELEMENT, TYPE=C3D3
8206, 2607, 2650, 2600
*ELEMENT, TYPE=C3D3
8207, 2698, 2655, 2703
*ELEMENT, TYPE=C3D3
8208, 2600, 2650, 2639
*ELEMENT, TYPE=C3D3
8209, 2607, 2600, 2562
*ELEMENT, TYPE=C3D3
8210, 2703, 2655, 2667
*ELEMENT, TYPE=C3D3
8211, 2639, 2650, 2689
*ELEMENT, TYPE=C3D3
8212, 2562, 2600, 2551
*ELEMENT, TYPE=C3D3
8213, 2689, 2650, 2698
*ELEMENT, TYPE=C3D3
8214, 2551, 2600, 2594
*ELEMENT, TYPE=C3D3
8215, 2562, 2551, 2515
*ELEMENT, TYPE=C3D3
8216, 2594, 2600, 2639
*ELEMENT, TYPE=C3D3
8217, 2551, 2594, 2547
*ELEMENT, TYPE=C3D3
8218, 2515, 2551, 2506
*ELEMENT, TYPE=C3D3
8219, 2594, 2639, 2636
*ELEMENT, TYPE=C3D3
8220, 2547, 2594, 2589
*ELEMENT, TYPE=C3D3
8221, 2506, 2551, 2547
*ELEMENT, TYPE=C3D3
8222, 2636, 2639, 2679
*ELEMENT, TYPE=C3D3
8223, 2589, 2594, 2636
*ELEMENT, TYPE=C3D3
8224, 2506, 2547, 2502
*ELEMENT, TYPE=C3D3
8225, 2679, 2639, 2689
*ELEMENT, TYPE=C3D3
8226, 2502, 2547, 2544
*ELEMENT, TYPE=C3D3
8227, 2506, 2502, 2465
*ELEMENT, TYPE=C3D3
8228, 2544, 2547, 2589
*ELEMENT, TYPE=C3D3
8229, 2502, 2544, 2499
*ELEMENT, TYPE=C3D3
8230, 2499, 2544, 2540
*ELEMENT, TYPE=C3D3
8231, 2499, 2540, 2494
*ELEMENT, TYPE=C3D3
8232, 2768, 2756, 2720
*ELEMENT, TYPE=C3D3
8233, 2720, 2756, 2706
*ELEMENT, TYPE=C3D3
8234, 2768, 2720, 2734
*ELEMENT, TYPE=C3D3
8235, 2720, 2706, 2670
*ELEMENT, TYPE=C3D3
8236, 2734, 2720, 2682
*ELEMENT, TYPE=C3D3
8237, 2670, 2706, 2656
*ELEMENT, TYPE=C3D3
8238, 2682, 2720, 2670
*ELEMENT, TYPE=C3D3
8239, 2656, 2706, 2697
*ELEMENT, TYPE=C3D3
8240, 2682, 2670, 2633
*ELEMENT, TYPE=C3D3
8241, 2633, 2670, 2623
*ELEMENT, TYPE=C3D3
8242, 2682, 2633, 2649
*ELEMENT, TYPE=C3D3
8243, 2623, 2670, 2656
*ELEMENT, TYPE=C3D3
8244, 2649, 2633, 2598
*ELEMENT, TYPE=C3D3
8245, 2598, 2633, 2587
*ELEMENT, TYPE=C3D3
8246, 2649, 2598, 2614
*ELEMENT, TYPE=C3D3
8247, 2587, 2633, 2623
*ELEMENT, TYPE=C3D3
8248, 2614, 2598, 2565
*ELEMENT, TYPE=C3D3
8249, 2587, 2623, 2574
*ELEMENT, TYPE=C3D3
8250, 2565, 2598, 2549
*ELEMENT, TYPE=C3D3
8251, 2574, 2623, 2609
*ELEMENT, TYPE=C3D3
8252, 2549, 2598, 2587
*ELEMENT, TYPE=C3D3
8253, 2574, 2609, 2561
*ELEMENT, TYPE=C3D3
8254, 2549, 2587, 2539
*ELEMENT, TYPE=C3D3
8255, 2574, 2561, 2522
*ELEMENT, TYPE=C3D3
8256, 2539, 2587, 2574
*ELEMENT, TYPE=C3D3
8257, 2522, 2561, 2513
*ELEMENT, TYPE=C3D3
8258, 2539, 2574, 2522
*ELEMENT, TYPE=C3D3
8259, 2513, 2561, 2550
*ELEMENT, TYPE=C3D3
8260, 2539, 2522, 2488
*ELEMENT, TYPE=C3D3
8261, 2488, 2522, 2474
*ELEMENT, TYPE=C3D3
8262, 2539, 2488, 2501
*ELEMENT, TYPE=C3D3
8263, 2474, 2522, 2513
*ELEMENT, TYPE=C3D3
8264, 2474, 2513, 2468
*ELEMENT, TYPE=C3D3
8265, 2468, 2513, 2503
*ELEMENT, TYPE=C3D3
8266, 2474, 2468, 2426
*ELEMENT, TYPE=C3D3
8267, 2503, 2513, 2550
*ELEMENT, TYPE=C3D3
8268, 2426, 2468, 2418
*ELEMENT, TYPE=C3D3
8269, 2426, 2418, 2381
*ELEMENT, TYPE=C3D3
8270, 2381, 2418, 2372
*ELEMENT, TYPE=C3D3
8271, 2703, 2743, 2698
*ELEMENT, TYPE=C3D3
8272, 2698, 2743, 2738
*ELEMENT, TYPE=C3D3
8273, 2698, 2738, 2689
*ELEMENT, TYPE=C3D3
8274, 2689, 2738, 2728
*ELEMENT, TYPE=C3D3
8275, 2728, 2738, 2778
*ELEMENT, TYPE=C3D3
8276, 2689, 2728, 2679
*ELEMENT, TYPE=C3D3
8277, 2768, 2734, 2784
*ELEMENT, TYPE=C3D3
8278, 2784, 2734, 2748
*ELEMENT, TYPE=C3D3
8279, 2748, 2734, 2699
*ELEMENT, TYPE=C3D3
8280, 2784, 2748, 2796
*ELEMENT, TYPE=C3D3
8281, 2699, 2734, 2682
*ELEMENT, TYPE=C3D3
8282, 2796, 2748, 2761
*ELEMENT, TYPE=C3D3
8283, 2784, 2796, 2832
*ELEMENT, TYPE=C3D3
8284, 2699, 2682, 2649
*ELEMENT, TYPE=C3D3
8285, 2761, 2748, 2713
*ELEMENT, TYPE=C3D3
8286, 2796, 2761, 2808
*ELEMENT, TYPE=C3D3
8287, 2832, 2796, 2843
*ELEMENT, TYPE=C3D3
8288, 2699, 2649, 2662
*ELEMENT, TYPE=C3D3
8289, 2713, 2748, 2699
*ELEMENT, TYPE=C3D3
8290, 2808, 2761, 2780
*ELEMENT, TYPE=C3D3
8291, 2843, 2796, 2808
*ELEMENT, TYPE=C3D3
8292, 2662, 2649, 2614
*ELEMENT, TYPE=C3D3
8293, 2780, 2761, 2725
*ELEMENT, TYPE=C3D3
8294, 2808, 2780, 2827
*ELEMENT, TYPE=C3D3
8295, 2843, 2808, 2858
*ELEMENT, TYPE=C3D3
8296, 2662, 2614, 2629
*ELEMENT, TYPE=C3D3
8297, 2725, 2761, 2713
*ELEMENT, TYPE=C3D3
8298, 2827, 2780, 2792
*ELEMENT, TYPE=C3D3
8299, 2858, 2808, 2827
*ELEMENT, TYPE=C3D3
8300, 2725, 2713, 2677
*ELEMENT, TYPE=C3D3
8301, 2792, 2780, 2744
*ELEMENT, TYPE=C3D3
8302, 2827, 2792, 2840
*ELEMENT, TYPE=C3D3
8303, 2858, 2827, 2873
*ELEMENT, TYPE=C3D3
8304, 2677, 2713, 2662
*ELEMENT, TYPE=C3D3
8305, 2744, 2780, 2725
*ELEMENT, TYPE=C3D3
8306, 2873, 2827, 2840
*ELEMENT, TYPE=C3D3
8307, 2677, 2662, 2629
*ELEMENT, TYPE=C3D3
8308, 2840, 2792, 2806
*ELEMENT, TYPE=C3D3
8309, 2806, 2792, 2758
*ELEMENT, TYPE=C3D3
8310, 2758, 2792, 2744
*ELEMENT, TYPE=C3D3
8311, 2662, 2713, 2699
*ELEMENT, TYPE=C3D3
8312, 3485, 3446, 3491
*ELEMENT, TYPE=C3D3
8313, 3491, 3446, 3452
*ELEMENT, TYPE=C3D3
8314, 3485, 3491, 3528
*ELEMENT, TYPE=C3D3
8315, 3491, 3452, 3500
*ELEMENT, TYPE=C3D3
8316, 3528, 3491, 3535
*ELEMENT, TYPE=C3D3
8317, 3485, 3528, 3521
*ELEMENT, TYPE=C3D3
8318, 3500, 3452, 3466
*ELEMENT, TYPE=C3D3
8319, 3535, 3491, 3500
*ELEMENT, TYPE=C3D3
8320, 3528, 3535, 3574
*ELEMENT, TYPE=C3D3
8321, 3521, 3528, 3568
*ELEMENT, TYPE=C3D3
8322, 3466, 3452, 3419
*ELEMENT, TYPE=C3D3
8323, 3535, 3500, 3547
*ELEMENT, TYPE=C3D3
8324, 3574, 3535, 3580
*ELEMENT, TYPE=C3D3
8325, 3568, 3528, 3574
*ELEMENT, TYPE=C3D3
8326, 3547, 3500, 3511
*ELEMENT, TYPE=C3D3
8327, 3535, 3547, 3580
*ELEMENT, TYPE=C3D3
8328, 3511, 3500, 3466
*ELEMENT, TYPE=C3D3
8329, 3547, 3511, 3556
*ELEMENT, TYPE=C3D3
8330, 3580, 3547, 3594
*ELEMENT, TYPE=C3D3
8331, 3511, 3466, 3472
*ELEMENT, TYPE=C3D3
8332, 3556, 3511, 3518
*ELEMENT, TYPE=C3D3
8333, 3547, 3556, 3594
*ELEMENT, TYPE=C3D3
8334, 3472, 3466, 3427
*ELEMENT, TYPE=C3D3
8335, 3518, 3511, 3472
*ELEMENT, TYPE=C3D3
8336, 3594, 3556, 3601
*ELEMENT, TYPE=C3D3
8337, 3427, 3466, 3419
*ELEMENT, TYPE=C3D3
8338, 3472, 3427, 3436
*ELEMENT, TYPE=C3D3
8339, 3518, 3472, 3484
*ELEMENT, TYPE=C3D3
8340, 3601, 3556, 3566
*ELEMENT, TYPE=C3D3
8341, 3427, 3419, 3382
*ELEMENT, TYPE=C3D3
8342, 3436, 3427, 3388
*ELEMENT, TYPE=C3D3
8343, 3484, 3472, 3436
*ELEMENT, TYPE=C3D3
8344, 3566, 3556, 3518
*ELEMENT, TYPE=C3D3
8345, 3382, 3419, 3367
*ELEMENT, TYPE=C3D3
8346, 3388, 3427, 3382
*ELEMENT, TYPE=C3D3
8347, 3484, 3436, 3447
*ELEMENT, TYPE=C3D3
8348, 3566, 3518, 3529
*ELEMENT, TYPE=C3D3
8349, 3382, 3367, 3337
*ELEMENT, TYPE=C3D3
8350, 3388, 3382, 3343
*ELEMENT, TYPE=C3D3
8351, 3447, 3436, 3401
*ELEMENT, TYPE=C3D3
8352, 3529, 3518, 3484
*ELEMENT, TYPE=C3D3
8353, 3337, 3367, 3323
*ELEMENT, TYPE=C3D3
8354, 3343, 3382, 3337
*ELEMENT, TYPE=C3D3
8355, 3401, 3436, 3388
*ELEMENT, TYPE=C3D3
8356, 3529, 3484, 3494
*ELEMENT, TYPE=C3D3
8357, 3337, 3323, 3285
*ELEMENT, TYPE=C3D3
8358, 3343, 3337, 3297
*ELEMENT, TYPE=C3D3
8359, 3401, 3388, 3353
*ELEMENT, TYPE=C3D3
8360, 3494, 3484, 3447
*ELEMENT, TYPE=C3D3
8361, 3285, 3323, 3277
*ELEMENT, TYPE=C3D3
8362, 3297, 3337, 3285
*ELEMENT, TYPE=C3D3
8363, 3353, 3388, 3343
*ELEMENT, TYPE=C3D3
8364, 3494, 3447, 3461
*ELEMENT, TYPE=C3D3
8365, 3277, 3323, 3317
*ELEMENT, TYPE=C3D3
8366, 3297, 3285, 3252
*ELEMENT, TYPE=C3D3
8367, 3353, 3343, 3305
*ELEMENT, TYPE=C3D3
8368, 3461, 3447, 3410
*ELEMENT, TYPE=C3D3
8369, 3277, 3317, 3271
*ELEMENT, TYPE=C3D3
8370, 3305, 3343, 3297
*ELEMENT, TYPE=C3D3
8371, 3461, 3410, 3423
*ELEMENT, TYPE=C3D3
8372, 3305, 3297, 3261
*ELEMENT, TYPE=C3D3
8373, 3423, 3410, 3376
*ELEMENT, TYPE=C3D3
8374, 3261, 3297, 3252
*ELEMENT, TYPE=C3D3
8375, 3305, 3261, 3272
*ELEMENT, TYPE=C3D3
8376, 3376, 3410, 3364
*ELEMENT, TYPE=C3D3
8377, 3272, 3261, 3224
*ELEMENT, TYPE=C3D3
8378, 3305, 3272, 3318
*ELEMENT, TYPE=C3D3
8379, 3364, 3410, 3401
*ELEMENT, TYPE=C3D3
8380, 3224, 3261, 3214
*ELEMENT, TYPE=C3D3
8381, 3318, 3272, 3280
*ELEMENT, TYPE=C3D3
8382, 3401, 3410, 3447
*ELEMENT, TYPE=C3D3
8383, 3214, 3261, 3252
*ELEMENT, TYPE=C3D3
8384, 3280, 3272, 3235
*ELEMENT, TYPE=C3D3
8385, 3214, 3252, 3203
*ELEMENT, TYPE=C3D3
8386, 3235, 3272, 3224
*ELEMENT, TYPE=C3D3
8387, 3203, 3252, 3239
*ELEMENT, TYPE=C3D3
8388, 3235, 3224, 3188
*ELEMENT, TYPE=C3D3
8389, 3239, 3252, 3285
*ELEMENT, TYPE=C3D3
8390, 3188, 3224, 3177
*ELEMENT, TYPE=C3D3
8391, 3239, 3285, 3277
*ELEMENT, TYPE=C3D3
8392, 3177, 3224, 3214
*ELEMENT, TYPE=C3D3
8393, 3239, 3277, 3231
*ELEMENT, TYPE=C3D3
8394, 3177, 3214, 3168
*ELEMENT, TYPE=C3D3
8395, 3231, 3277, 3271
*ELEMENT, TYPE=C3D3
8396, 3168, 3214, 3203
*ELEMENT, TYPE=C3D3
8397, 3231, 3271, 3225
*ELEMENT, TYPE=C3D3
8398, 3225, 3271, 3262
*ELEMENT, TYPE=C3D3
8399, 3280, 3235, 3246
*ELEMENT, TYPE=C3D3
8400, 3246, 3235, 3195
*ELEMENT, TYPE=C3D3
8401, 3280, 3246, 3294
*ELEMENT, TYPE=C3D3
8402, 3195, 3235, 3188
*ELEMENT, TYPE=C3D3
8403, 3294, 3246, 3259
*ELEMENT, TYPE=C3D3
8404, 3195, 3188, 3148
*ELEMENT, TYPE=C3D3
8405, 3259, 3246, 3213
*ELEMENT, TYPE=C3D3
8406, 3148, 3188, 3141
*ELEMENT, TYPE=C3D3
8407, 3213, 3246, 3195
*ELEMENT, TYPE=C3D3
8408, 3141, 3188, 3177
*ELEMENT, TYPE=C3D3
8409, 3213, 3195, 3165
*ELEMENT, TYPE=C3D3
8410, 3141, 3177, 3131
*ELEMENT, TYPE=C3D3
8411, 3165, 3195, 3148
*ELEMENT, TYPE=C3D3
8412, 3131, 3177, 3168
*ELEMENT, TYPE=C3D3
8413, 3165, 3148, 3111
*ELEMENT, TYPE=C3D3
8414, 3131, 3168, 3119
*ELEMENT, TYPE=C3D3
8415, 3111, 3148, 3103
*ELEMENT, TYPE=C3D3
8416, 3131, 3119, 3084
*ELEMENT, TYPE=C3D3
8417, 3103, 3148, 3141
*ELEMENT, TYPE=C3D3
8418, 3131, 3084, 3092
*ELEMENT, TYPE=C3D3
8419, 3103, 3141, 3092
*ELEMENT, TYPE=C3D3
8420, 3092, 3084, 3046
*ELEMENT, TYPE=C3D3
8421, 3092, 3141, 3131
*ELEMENT, TYPE=C3D3
8422, 3046, 3084, 3035
*ELEMENT, TYPE=C3D3
8423, 3046, 3035, 2999
*ELEMENT, TYPE=C3D3
8424, 3046, 2999, 3009
*ELEMENT, TYPE=C3D3
8425, 3009, 2999, 2960
*ELEMENT, TYPE=C3D3
8426, 3046, 3009, 3057
*ELEMENT, TYPE=C3D3
8427, 3009, 2960, 2971
*ELEMENT, TYPE=C3D3
8428, 3057, 3009, 3018
*ELEMENT, TYPE=C3D3
8429, 2971, 2960, 2925
*ELEMENT, TYPE=C3D3
8430, 3018, 3009, 2971
*ELEMENT, TYPE=C3D3
8431, 2971, 2925, 2934
*ELEMENT, TYPE=C3D3
8432, 3018, 2971, 2980
*ELEMENT, TYPE=C3D3
8433, 2971, 2934, 2980
*ELEMENT, TYPE=C3D3
8434, 2980, 2934, 2948
*ELEMENT, TYPE=C3D3
8435, 2948, 2934, 2897
*ELEMENT, TYPE=C3D3
8436, 2980, 2948, 2997
*ELEMENT, TYPE=C3D3
8437, 2948, 2897, 2916
*ELEMENT, TYPE=C3D3
8438, 2997, 2948, 2963
*ELEMENT, TYPE=C3D3
8439, 2916, 2897, 2867
*ELEMENT, TYPE=C3D3
8440, 2963, 2948, 2916
*ELEMENT, TYPE=C3D3
8441, 2867, 2897, 2848
*ELEMENT, TYPE=C3D3
8442, 2963, 2916, 2928
*ELEMENT, TYPE=C3D3
8443, 2867, 2848, 2819
*ELEMENT, TYPE=C3D3
8444, 2928, 2916, 2880
*ELEMENT, TYPE=C3D3
8445, 2867, 2819, 2832
*ELEMENT, TYPE=C3D3
8446, 2880, 2916, 2867
*ELEMENT, TYPE=C3D3
8447, 2832, 2819, 2784
*ELEMENT, TYPE=C3D3
8448, 2880, 2867, 2832
*ELEMENT, TYPE=C3D3
8449, 2784, 2819, 2768
*ELEMENT, TYPE=C3D3
8450, 2880, 2832, 2843
*ELEMENT, TYPE=C3D3
8451, 2880, 2843, 2891
*ELEMENT, TYPE=C3D3
8452, 2891, 2843, 2858
*ELEMENT, TYPE=C3D3
8453, 2891, 2858, 2910
*ELEMENT, TYPE=C3D3
8454, 2910, 2858, 2873
*ELEMENT, TYPE=C3D3
8455, 2910, 2873, 2924
*ELEMENT, TYPE=C3D3
8456, 3213, 3165, 3176
*ELEMENT, TYPE=C3D3
8457, 3176, 3165, 3130
*ELEMENT, TYPE=C3D3
8458, 3213, 3176, 3226
*ELEMENT, TYPE=C3D3
8459, 3130, 3165, 3111
*ELEMENT, TYPE=C3D3
8460, 3226, 3176, 3190
*ELEMENT, TYPE=C3D3
8461, 3130, 3111, 3081
*ELEMENT, TYPE=C3D3
8462, 3190, 3176, 3143
*ELEMENT, TYPE=C3D3
8463, 3081, 3111, 3065
*ELEMENT, TYPE=C3D3
8464, 3143, 3176, 3130
*ELEMENT, TYPE=C3D3
8465, 3065, 3111, 3103
*ELEMENT, TYPE=C3D3
8466, 3143, 3130, 3094
*ELEMENT, TYPE=C3D3
8467, 3065, 3103, 3057
*ELEMENT, TYPE=C3D3
8468, 3094, 3130, 3081
*ELEMENT, TYPE=C3D3
8469, 3057, 3103, 3092
*ELEMENT, TYPE=C3D3
8470, 3094, 3081, 3047
*ELEMENT, TYPE=C3D3
8471, 3057, 3092, 3046
*ELEMENT, TYPE=C3D3
8472, 3047, 3081, 3031
*ELEMENT, TYPE=C3D3
8473, 3031, 3081, 3065
*ELEMENT, TYPE=C3D3
8474, 3047, 3031, 2997
*ELEMENT, TYPE=C3D3
8475, 3031, 3065, 3018
*ELEMENT, TYPE=C3D3
8476, 2997, 3031, 2980
*ELEMENT, TYPE=C3D3
8477, 3018, 3065, 3057
*ELEMENT, TYPE=C3D3
8478, 2980, 3031, 3018
*ELEMENT, TYPE=C3D3
8479, 3213, 3226, 3259
*ELEMENT, TYPE=C3D3
8480, 3259, 3226, 3274
*ELEMENT, TYPE=C3D3
8481, 3274, 3226, 3236
*ELEMENT, TYPE=C3D3
8482, 3259, 3274, 3304
*ELEMENT, TYPE=C3D3
8483, 3236, 3226, 3190
*ELEMENT, TYPE=C3D3
8484, 3274, 3236, 3283
*ELEMENT, TYPE=C3D3
8485, 3304, 3274, 3321
*ELEMENT, TYPE=C3D3
8486, 3259, 3304, 3294
*ELEMENT, TYPE=C3D3
8487, 3236, 3190, 3204
*ELEMENT, TYPE=C3D3
8488, 3283, 3236, 3255
*ELEMENT, TYPE=C3D3
8489, 3321, 3274, 3283
*ELEMENT, TYPE=C3D3
8490, 3294, 3304, 3341
*ELEMENT, TYPE=C3D3
8491, 3236, 3204, 3255
*ELEMENT, TYPE=C3D3
8492, 3341, 3304, 3354
*ELEMENT, TYPE=C3D3
8493, 3294, 3341, 3325
*ELEMENT, TYPE=C3D3
8494, 3255, 3204, 3219
*ELEMENT, TYPE=C3D3
8495, 3354, 3304, 3321
*ELEMENT, TYPE=C3D3
8496, 3341, 3354, 3387
*ELEMENT, TYPE=C3D3
8497, 3325, 3341, 3376
*ELEMENT, TYPE=C3D3
8498, 3219, 3204, 3172
*ELEMENT, TYPE=C3D3
8499, 3354, 3321, 3365
*ELEMENT, TYPE=C3D3
8500, 3387, 3354, 3402
*ELEMENT, TYPE=C3D3
8501, 3376, 3341, 3387
*ELEMENT, TYPE=C3D3
8502, 3172, 3204, 3152
*ELEMENT, TYPE=C3D3
8503, 3365, 3321, 3334
*ELEMENT, TYPE=C3D3
8504, 3402, 3354, 3365
*ELEMENT, TYPE=C3D3
8505, 3376, 3387, 3423
*ELEMENT, TYPE=C3D3
8506, 3152, 3204, 3190
*ELEMENT, TYPE=C3D3
8507, 3334, 3321, 3283
*ELEMENT, TYPE=C3D3
8508, 3402, 3365, 3412
*ELEMENT, TYPE=C3D3
8509, 3423, 3387, 3434
*ELEMENT, TYPE=C3D3
8510, 3152, 3190, 3143
*ELEMENT, TYPE=C3D3
8511, 3412, 3365, 3383
*ELEMENT, TYPE=C3D3
8512, 3402, 3412, 3450
*ELEMENT, TYPE=C3D3
8513, 3434, 3387, 3402
*ELEMENT, TYPE=C3D3
8514, 3152, 3143, 3105
*ELEMENT, TYPE=C3D3
8515, 3383, 3365, 3334
*ELEMENT, TYPE=C3D3
8516, 3450, 3412, 3464
*ELEMENT, TYPE=C3D3
8517, 3434, 3402, 3450
*ELEMENT, TYPE=C3D3
8518, 3105, 3143, 3094
*ELEMENT, TYPE=C3D3
8519, 3464, 3412, 3430
*ELEMENT, TYPE=C3D3
8520, 3450, 3464, 3495
*ELEMENT, TYPE=C3D3
8521, 3434, 3450, 3483
*ELEMENT, TYPE=C3D3
8522, 3430, 3412, 3383
*ELEMENT, TYPE=C3D3
8523, 3464, 3430, 3476
*ELEMENT, TYPE=C3D3
8524, 3495, 3464, 3512
*ELEMENT, TYPE=C3D3
8525, 3483, 3450, 3495
*ELEMENT, TYPE=C3D3
8526, 3476, 3430, 3444
*ELEMENT, TYPE=C3D3
8527, 3495, 3512, 3544
*ELEMENT, TYPE=C3D3
8528, 3444, 3430, 3395
*ELEMENT, TYPE=C3D3
8529, 3476, 3444, 3490
*ELEMENT, TYPE=C3D3
8530, 3544, 3512, 3558
*ELEMENT, TYPE=C3D3
8531, 3395, 3430, 3383
*ELEMENT, TYPE=C3D3
8532, 3490, 3444, 3459
*ELEMENT, TYPE=C3D3
8533, 3558, 3512, 3524
*ELEMENT, TYPE=C3D3
8534, 3459, 3444, 3408
*ELEMENT, TYPE=C3D3
8535, 3490, 3459, 3507
*ELEMENT, TYPE=C3D3
8536, 3524, 3512, 3476
*ELEMENT, TYPE=C3D3
8537, 3408, 3444, 3395
*ELEMENT, TYPE=C3D3
8538, 3507, 3459, 3473
*ELEMENT, TYPE=C3D3
8539, 3476, 3512, 3464
*ELEMENT, TYPE=C3D3
8540, 3473, 3459, 3426
*ELEMENT, TYPE=C3D3
8541, 3507, 3473, 3522
*ELEMENT, TYPE=C3D3
8542, 3426, 3459, 3408
*ELEMENT, TYPE=C3D3
8543, 3507, 3522, 3555
*ELEMENT, TYPE=C3D3
8544, 3426, 3408, 3378
*ELEMENT, TYPE=C3D3
8545, 3507, 3555, 3537
*ELEMENT, TYPE=C3D3
8546, 3378, 3408, 3362
*ELEMENT, TYPE=C3D3
8547, 3537, 3555, 3587
*ELEMENT, TYPE=C3D3
8548, 3362, 3408, 3395
*ELEMENT, TYPE=C3D3
8549, 3587, 3555, 3600
*ELEMENT, TYPE=C3D3
8550, 3362, 3395, 3347
*ELEMENT, TYPE=C3D3
8551, 3587, 3600, 3633
*ELEMENT, TYPE=C3D3
8552, 3347, 3395, 3383
*ELEMENT, TYPE=C3D3
8553, 3347, 3383, 3334
*ELEMENT, TYPE=C3D3
8554, 3347, 3334, 3300
*ELEMENT, TYPE=C3D3
8555, 3300, 3334, 3283
*ELEMENT, TYPE=C3D3
8556, 3347, 3300, 3315
*ELEMENT, TYPE=C3D3
8557, 3300, 3283, 3255
*ELEMENT, TYPE=C3D3
8558, 3315, 3300, 3266
*ELEMENT, TYPE=C3D3
8559, 3300, 3255, 3266
*ELEMENT, TYPE=C3D3
8560, 3266, 3255, 3219
*ELEMENT, TYPE=C3D3
8561, 3266, 3219, 3232
*ELEMENT, TYPE=C3D3
8562, 3232, 3219, 3183
*ELEMENT, TYPE=C3D3
8563, 3266, 3232, 3279
*ELEMENT, TYPE=C3D3
8564, 3183, 3219, 3172
*ELEMENT, TYPE=C3D3
8565, 3279, 3232, 3249
*ELEMENT, TYPE=C3D3
8566, 3183, 3172, 3135
*ELEMENT, TYPE=C3D3
8567, 3249, 3232, 3196
*ELEMENT, TYPE=C3D3
8568, 3135, 3172, 3123
*ELEMENT, TYPE=C3D3
8569, 3183, 3135, 3149
*ELEMENT, TYPE=C3D3
8570, 3196, 3232, 3183
*ELEMENT, TYPE=C3D3
8571, 3135, 3123, 3090
*ELEMENT, TYPE=C3D3
8572, 3149, 3135, 3101
*ELEMENT, TYPE=C3D3
8573, 3090, 3123, 3070
*ELEMENT, TYPE=C3D3
8574, 3135, 3090, 3101
*ELEMENT, TYPE=C3D3
8575, 3070, 3123, 3105
*ELEMENT, TYPE=C3D3
8576, 3105, 3123, 3152
*ELEMENT, TYPE=C3D3
8577, 3070, 3105, 3058
*ELEMENT, TYPE=C3D3
8578, 3152, 3123, 3172
*ELEMENT, TYPE=C3D3
8579, 3058, 3105, 3094
*ELEMENT, TYPE=C3D3
8580, 3070, 3058, 3022
*ELEMENT, TYPE=C3D3
8581, 3058, 3094, 3047
*ELEMENT, TYPE=C3D3
8582, 3022, 3058, 3011
*ELEMENT, TYPE=C3D3
8583, 3058, 3047, 3011
*ELEMENT, TYPE=C3D3
8584, 3011, 3047, 2997
*ELEMENT, TYPE=C3D3
8585, 3011, 2997, 2963
*ELEMENT, TYPE=C3D3
8586, 3011, 2963, 2975
*ELEMENT, TYPE=C3D3
8587, 2975, 2963, 2928
*ELEMENT, TYPE=C3D3
8588, 3011, 2975, 3022
*ELEMENT, TYPE=C3D3
8589, 2975, 2928, 2938
*ELEMENT, TYPE=C3D3
8590, 3022, 2975, 2990
*ELEMENT, TYPE=C3D3
8591, 2938, 2928, 2891
*ELEMENT, TYPE=C3D3
8592, 2990, 2975, 2938
*ELEMENT, TYPE=C3D3
8593, 2891, 2928, 2880
*ELEMENT, TYPE=C3D3
8594, 2990, 2938, 2957
*ELEMENT, TYPE=C3D3
8595, 2957, 2938, 2910
*ELEMENT, TYPE=C3D3
8596, 2910, 2938, 2891
*ELEMENT, TYPE=C3D3
8597, 2957, 2910, 2924
*ELEMENT, TYPE=C3D3
8598, 3473, 3426, 3441
*ELEMENT, TYPE=C3D3
8599, 3441, 3426, 3393
*ELEMENT, TYPE=C3D3
8600, 3393, 3426, 3378
*ELEMENT, TYPE=C3D3
8601, 3393, 3378, 3344
*ELEMENT, TYPE=C3D3
8602, 3344, 3378, 3326
*ELEMENT, TYPE=C3D3
8603, 3326, 3378, 3362
*ELEMENT, TYPE=C3D3
8604, 3344, 3326, 3298
*ELEMENT, TYPE=C3D3
8605, 3326, 3362, 3315
*ELEMENT, TYPE=C3D3
8606, 3298, 3326, 3279
*ELEMENT, TYPE=C3D3
8607, 3315, 3362, 3347
*ELEMENT, TYPE=C3D3
8608, 3279, 3326, 3315
*ELEMENT, TYPE=C3D3
8609, 3279, 3315, 3266
*ELEMENT, TYPE=C3D3
8610, 3521, 3568, 3559
*ELEMENT, TYPE=C3D3
8611, 3559, 3568, 3606
*ELEMENT, TYPE=C3D3
8612, 3606, 3568, 3613
*ELEMENT, TYPE=C3D3
8613, 3559, 3606, 3597
*ELEMENT, TYPE=C3D3
8614, 3613, 3568, 3574
*ELEMENT, TYPE=C3D3
8615, 3606, 3613, 3651
*ELEMENT, TYPE=C3D3
8616, 3597, 3606, 3642
*ELEMENT, TYPE=C3D3
8617, 3613, 3574, 3620
*ELEMENT, TYPE=C3D3
8618, 3651, 3613, 3658
*ELEMENT, TYPE=C3D3
8619, 3606, 3651, 3642
*ELEMENT, TYPE=C3D3
8620, 3620, 3574, 3580
*ELEMENT, TYPE=C3D3
8621, 3658, 3613, 3620
*ELEMENT, TYPE=C3D3
8622, 3642, 3651, 3687
*ELEMENT, TYPE=C3D3
8623, 3620, 3580, 3628
*ELEMENT, TYPE=C3D3
8624, 3658, 3620, 3665
*ELEMENT, TYPE=C3D3
8625, 3687, 3651, 3696
*ELEMENT, TYPE=C3D3
8626, 3628, 3580, 3594
*ELEMENT, TYPE=C3D3
8627, 3665, 3620, 3628
*ELEMENT, TYPE=C3D3
8628, 3687, 3696, 3736
*ELEMENT, TYPE=C3D3
8629, 3665, 3628, 3676
*ELEMENT, TYPE=C3D3
8630, 3736, 3696, 3743
*ELEMENT, TYPE=C3D3
8631, 3676, 3628, 3639
*ELEMENT, TYPE=C3D3
8632, 3665, 3676, 3710
*ELEMENT, TYPE=C3D3
8633, 3743, 3696, 3703
*ELEMENT, TYPE=C3D3
8634, 3639, 3628, 3594
*ELEMENT, TYPE=C3D3
8635, 3710, 3676, 3723
*ELEMENT, TYPE=C3D3
8636, 3703, 3696, 3658
*ELEMENT, TYPE=C3D3
8637, 3723, 3676, 3685
*ELEMENT, TYPE=C3D3
8638, 3710, 3723, 3758
*ELEMENT, TYPE=C3D3
8639, 3658, 3696, 3651
*ELEMENT, TYPE=C3D3
8640, 3685, 3676, 3639
*ELEMENT, TYPE=C3D3
8641, 3758, 3723, 3769
*ELEMENT, TYPE=C3D3
8642, 3685, 3639, 3647
*ELEMENT, TYPE=C3D3
8643, 3769, 3723, 3731
*ELEMENT, TYPE=C3D3
8644, 3647, 3639, 3601
*ELEMENT, TYPE=C3D3
8645, 3731, 3723, 3685
*ELEMENT, TYPE=C3D3
8646, 3601, 3639, 3594
*ELEMENT, TYPE=C3D3
8647, 3647, 3601, 3612
*ELEMENT, TYPE=C3D3
8648, 3612, 3601, 3566
*ELEMENT, TYPE=C3D3
8649, 3647, 3612, 3659
*ELEMENT, TYPE=C3D3
8650, 3612, 3566, 3576
*ELEMENT, TYPE=C3D3
8651, 3659, 3612, 3622
*ELEMENT, TYPE=C3D3
8652, 3647, 3659, 3695
*ELEMENT, TYPE=C3D3
8653, 3576, 3566, 3529
*ELEMENT, TYPE=C3D3
8654, 3622, 3612, 3576
*ELEMENT, TYPE=C3D3
8655, 3695, 3659, 3705
*ELEMENT, TYPE=C3D3
8656, 3576, 3529, 3539
*ELEMENT, TYPE=C3D3
8657, 3705, 3659, 3669
*ELEMENT, TYPE=C3D3
8658, 3695, 3705, 3742
*ELEMENT, TYPE=C3D3
8659, 3539, 3529, 3494
*ELEMENT, TYPE=C3D3
8660, 3669, 3659, 3622
*ELEMENT, TYPE=C3D3
8661, 3742, 3705, 3752
*ELEMENT, TYPE=C3D3
8662, 3669, 3622, 3635
*ELEMENT, TYPE=C3D3
8663, 3752, 3705, 3717
*ELEMENT, TYPE=C3D3
8664, 3742, 3752, 3788
*ELEMENT, TYPE=C3D3
8665, 3635, 3622, 3589
*ELEMENT, TYPE=C3D3
8666, 3717, 3705, 3669
*ELEMENT, TYPE=C3D3
8667, 3788, 3752, 3799
*ELEMENT, TYPE=C3D3
8668, 3589, 3622, 3576
*ELEMENT, TYPE=C3D3
8669, 3717, 3669, 3680
*ELEMENT, TYPE=C3D3
8670, 3799, 3752, 3764
*ELEMENT, TYPE=C3D3
8671, 3680, 3669, 3635
*ELEMENT, TYPE=C3D3
8672, 3717, 3680, 3726
*ELEMENT, TYPE=C3D3
8673, 3764, 3752, 3717
*ELEMENT, TYPE=C3D3
8674, 3680, 3635, 3645
*ELEMENT, TYPE=C3D3
8675, 3726, 3680, 3692
*ELEMENT, TYPE=C3D3
8676, 3645, 3635, 3598
*ELEMENT, TYPE=C3D3
8677, 3680, 3645, 3692
*ELEMENT, TYPE=C3D3
8678, 3598, 3635, 3589
*ELEMENT, TYPE=C3D3
8679, 3692, 3645, 3660
*ELEMENT, TYPE=C3D3
8680, 3598, 3589, 3552
*ELEMENT, TYPE=C3D3
8681, 3660, 3645, 3611
*ELEMENT, TYPE=C3D3
8682, 3552, 3589, 3539
*ELEMENT, TYPE=C3D3
8683, 3598, 3552, 3564
*ELEMENT, TYPE=C3D3
8684, 3611, 3645, 3598
*ELEMENT, TYPE=C3D3
8685, 3539, 3589, 3576
*ELEMENT, TYPE=C3D3
8686, 3564, 3552, 3517
*ELEMENT, TYPE=C3D3
8687, 3611, 3598, 3564
*ELEMENT, TYPE=C3D3
8688, 3564, 3517, 3530
*ELEMENT, TYPE=C3D3
8689, 3611, 3564, 3577
*ELEMENT, TYPE=C3D3
8690, 3530, 3517, 3483
*ELEMENT, TYPE=C3D3
8691, 3577, 3564, 3530
*ELEMENT, TYPE=C3D3
8692, 3611, 3577, 3623
*ELEMENT, TYPE=C3D3
8693, 3483, 3517, 3470
*ELEMENT, TYPE=C3D3
8694, 3623, 3577, 3591
*ELEMENT, TYPE=C3D3
8695, 3611, 3623, 3660
*ELEMENT, TYPE=C3D3
8696, 3470, 3517, 3506
*ELEMENT, TYPE=C3D3
8697, 3591, 3577, 3544
*ELEMENT, TYPE=C3D3
8698, 3660, 3623, 3673
*ELEMENT, TYPE=C3D3
8699, 3470, 3506, 3461
*ELEMENT, TYPE=C3D3
8700, 3544, 3577, 3530
*ELEMENT, TYPE=C3D3
8701, 3673, 3623, 3638
*ELEMENT, TYPE=C3D3
8702, 3461, 3506, 3494
*ELEMENT, TYPE=C3D3
8703, 3544, 3530, 3495
*ELEMENT, TYPE=C3D3
8704, 3638, 3623, 3591
*ELEMENT, TYPE=C3D3
8705, 3494, 3506, 3539
*ELEMENT, TYPE=C3D3
8706, 3495, 3530, 3483
*ELEMENT, TYPE=C3D3
8707, 3638, 3591, 3604
*ELEMENT, TYPE=C3D3
8708, 3539, 3506, 3552
*ELEMENT, TYPE=C3D3
8709, 3604, 3591, 3558
*ELEMENT, TYPE=C3D3
8710, 3552, 3506, 3517
*ELEMENT, TYPE=C3D3
8711, 3558, 3591, 3544
*ELEMENT, TYPE=C3D3
8712, 3687, 3736, 3725
*ELEMENT, TYPE=C3D3
8713, 3725, 3736, 3771
*ELEMENT, TYPE=C3D3
8714, 3687, 3725, 3682
*ELEMENT, TYPE=C3D3
8715, 3771, 3736, 3781
*ELEMENT, TYPE=C3D3
8716, 3682, 3725, 3720
*ELEMENT, TYPE=C3D3
8717, 3781, 3736, 3743
*ELEMENT, TYPE=C3D3
8718, 3720, 3725, 3766
*ELEMENT, TYPE=C3D3
8719, 3682, 3720, 3677
*ELEMENT, TYPE=C3D3
8720, 3781, 3743, 3786
*ELEMENT, TYPE=C3D3
8721, 3766, 3725, 3771
*ELEMENT, TYPE=C3D3
8722, 3677, 3720, 3715
*ELEMENT, TYPE=C3D3
8723, 3786, 3743, 3750
*ELEMENT, TYPE=C3D3
8724, 3715, 3720, 3761
*ELEMENT, TYPE=C3D3
8725, 3677, 3715, 3671
*ELEMENT, TYPE=C3D3
8726, 3750, 3743, 3703
*ELEMENT, TYPE=C3D3
8727, 3761, 3720, 3766
*ELEMENT, TYPE=C3D3
8728, 3671, 3715, 3708
*ELEMENT, TYPE=C3D3
8729, 3750, 3703, 3710
*ELEMENT, TYPE=C3D3
8730, 3708, 3715, 3754
*ELEMENT, TYPE=C3D3
8731, 3710, 3703, 3665
*ELEMENT, TYPE=C3D3
8732, 3754, 3715, 3761
*ELEMENT, TYPE=C3D3
8733, 3708, 3754, 3749
*ELEMENT, TYPE=C3D3
8734, 3665, 3703, 3658
*ELEMENT, TYPE=C3D3
8735, 3749, 3754, 3792
*ELEMENT, TYPE=C3D3
8736, 3708, 3749, 3704
*ELEMENT, TYPE=C3D3
8737, 3792, 3754, 3798
*ELEMENT, TYPE=C3D3
8738, 3704, 3749, 3744
*ELEMENT, TYPE=C3D3
8739, 3798, 3754, 3761
*ELEMENT, TYPE=C3D3
8740, 3704, 3744, 3702
*ELEMENT, TYPE=C3D3
8741, 3798, 3761, 3804
*ELEMENT, TYPE=C3D3
8742, 3804, 3761, 3766
*ELEMENT, TYPE=C3D3
8743, 3798, 3804, 3843
*ELEMENT, TYPE=C3D3
8744, 3804, 3766, 3810
*ELEMENT, TYPE=C3D3
8745, 3843, 3804, 3849
*ELEMENT, TYPE=C3D3
8746, 3810, 3766, 3771
*ELEMENT, TYPE=C3D3
8747, 3849, 3804, 3810
*ELEMENT, TYPE=C3D3
8748, 3843, 3849, 3887
*ELEMENT, TYPE=C3D3
8749, 3849, 3810, 3853
*ELEMENT, TYPE=C3D3
8750, 3887, 3849, 3892
*ELEMENT, TYPE=C3D3
8751, 3853, 3810, 3819
*ELEMENT, TYPE=C3D3
8752, 3849, 3853, 3892
*ELEMENT, TYPE=C3D3
8753, 3819, 3810, 3771
*ELEMENT, TYPE=C3D3
8754, 3892, 3853, 3900
*ELEMENT, TYPE=C3D3
8755, 3819, 3771, 3781
*ELEMENT, TYPE=C3D3
8756, 3900, 3853, 3865
*ELEMENT, TYPE=C3D3
8757, 3819, 3781, 3826
*ELEMENT, TYPE=C3D3
8758, 3865, 3853, 3819
*ELEMENT, TYPE=C3D3
8759, 3826, 3781, 3786
*ELEMENT, TYPE=C3D3
8760, 3819, 3826, 3865
*ELEMENT, TYPE=C3D3
8761, 3826, 3786, 3832
*ELEMENT, TYPE=C3D3
8762, 3865, 3826, 3872
*ELEMENT, TYPE=C3D3
8763, 3832, 3786, 3794
*ELEMENT, TYPE=C3D3
8764, 3826, 3832, 3872
*ELEMENT, TYPE=C3D3
8765, 3794, 3786, 3750
*ELEMENT, TYPE=C3D3
8766, 3872, 3832, 3878
*ELEMENT, TYPE=C3D3
8767, 3794, 3750, 3758
*ELEMENT, TYPE=C3D3
8768, 3878, 3832, 3839
*ELEMENT, TYPE=C3D3
8769, 3872, 3878, 3916
*ELEMENT, TYPE=C3D3
8770, 3758, 3750, 3710
*ELEMENT, TYPE=C3D3
8771, 3839, 3832, 3794
*ELEMENT, TYPE=C3D3
8772, 3916, 3878, 3923
*ELEMENT, TYPE=C3D3
8773, 3839, 3794, 3805
*ELEMENT, TYPE=C3D3
8774, 3923, 3878, 3885
*ELEMENT, TYPE=C3D3
8775, 3805, 3794, 3758
*ELEMENT, TYPE=C3D3
8776, 3839, 3805, 3851
*ELEMENT, TYPE=C3D3
8777, 3885, 3878, 3839
*ELEMENT, TYPE=C3D3
8778, 3851, 3805, 3813
*ELEMENT, TYPE=C3D3
8779, 3839, 3851, 3885
*ELEMENT, TYPE=C3D3
8780, 3813, 3805, 3769
*ELEMENT, TYPE=C3D3
8781, 3885, 3851, 3896
*ELEMENT, TYPE=C3D3
8782, 3769, 3805, 3758
*ELEMENT, TYPE=C3D3
8783, 3813, 3769, 3778
*ELEMENT, TYPE=C3D3
8784, 3896, 3851, 3860
*ELEMENT, TYPE=C3D3
8785, 3778, 3769, 3731
*ELEMENT, TYPE=C3D3
8786, 3860, 3851, 3813
*ELEMENT, TYPE=C3D3
8787, 3896, 3860, 3908
*ELEMENT, TYPE=C3D3
8788, 3860, 3813, 3825
*ELEMENT, TYPE=C3D3
8789, 3908, 3860, 3871
*ELEMENT, TYPE=C3D3
8790, 3896, 3908, 3942
*ELEMENT, TYPE=C3D3
8791, 3825, 3813, 3778
*ELEMENT, TYPE=C3D3
8792, 3871, 3860, 3825
*ELEMENT, TYPE=C3D3
8793, 3942, 3908, 3953
*ELEMENT, TYPE=C3D3
8794, 3871, 3825, 3834
*ELEMENT, TYPE=C3D3
8795, 3953, 3908, 3918
*ELEMENT, TYPE=C3D3
8796, 3942, 3953, 3989
*ELEMENT, TYPE=C3D3
8797, 3834, 3825, 3788
*ELEMENT, TYPE=C3D3
8798, 3918, 3908, 3871
*ELEMENT, TYPE=C3D3
8799, 3989, 3953, 4000
*ELEMENT, TYPE=C3D3
8800, 3788, 3825, 3778
*ELEMENT, TYPE=C3D3
8801, 3918, 3871, 3880
*ELEMENT, TYPE=C3D3
8802, 4000, 3953, 3963
*ELEMENT, TYPE=C3D3
8803, 3880, 3871, 3834
*ELEMENT, TYPE=C3D3
8804, 3918, 3880, 3927
*ELEMENT, TYPE=C3D3
8805, 3963, 3953, 3918
*ELEMENT, TYPE=C3D3
8806, 3927, 3880, 3890
*ELEMENT, TYPE=C3D3
8807, 3918, 3927, 3963
*ELEMENT, TYPE=C3D3
8808, 3890, 3880, 3845
*ELEMENT, TYPE=C3D3
8809, 3927, 3890, 3936
*ELEMENT, TYPE=C3D3
8810, 3963, 3927, 3973
*ELEMENT, TYPE=C3D3
8811, 3890, 3845, 3855
*ELEMENT, TYPE=C3D3
8812, 3936, 3890, 3905
*ELEMENT, TYPE=C3D3
8813, 3973, 3927, 3936
*ELEMENT, TYPE=C3D3
8814, 3855, 3845, 3809
*ELEMENT, TYPE=C3D3
8815, 3905, 3890, 3855
*ELEMENT, TYPE=C3D3
8816, 3809, 3845, 3799
*ELEMENT, TYPE=C3D3
8817, 3855, 3809, 3823
*ELEMENT, TYPE=C3D3
8818, 3799, 3845, 3834
*ELEMENT, TYPE=C3D3
8819, 3809, 3799, 3764
*ELEMENT, TYPE=C3D3
8820, 3823, 3809, 3775
*ELEMENT, TYPE=C3D3
8821, 3834, 3845, 3880
*ELEMENT, TYPE=C3D3
8822, 3775, 3809, 3764
*ELEMENT, TYPE=C3D3
8823, 3823, 3775, 3787
*ELEMENT, TYPE=C3D3
8824, 3775, 3764, 3726
*ELEMENT, TYPE=C3D3
8825, 3787, 3775, 3740
*ELEMENT, TYPE=C3D3
8826, 3726, 3764, 3717
*ELEMENT, TYPE=C3D3
8827, 3740, 3775, 3726
*ELEMENT, TYPE=C3D3
8828, 3740, 3726, 3692
*ELEMENT, TYPE=C3D3
8829, 3740, 3692, 3706
*ELEMENT, TYPE=C3D3
8830, 3706, 3692, 3660
*ELEMENT, TYPE=C3D3
8831, 3706, 3660, 3673
*ELEMENT, TYPE=C3D3
8832, 3706, 3673, 3719
*ELEMENT, TYPE=C3D3
8833, 3719, 3673, 3686
*ELEMENT, TYPE=C3D3
8834, 3686, 3673, 3638
*ELEMENT, TYPE=C3D3
8835, 3686, 3638, 3654
*ELEMENT, TYPE=C3D3
8836, 3654, 3638, 3604
*ELEMENT, TYPE=C3D3
8837, 3686, 3654, 3699
*ELEMENT, TYPE=C3D3
8838, 3654, 3604, 3618
*ELEMENT, TYPE=C3D3
8839, 3699, 3654, 3666
*ELEMENT, TYPE=C3D3
8840, 3618, 3604, 3572
*ELEMENT, TYPE=C3D3
8841, 3666, 3654, 3618
*ELEMENT, TYPE=C3D3
8842, 3572, 3604, 3558
*ELEMENT, TYPE=C3D3
8843, 3666, 3618, 3633
*ELEMENT, TYPE=C3D3
8844, 3633, 3618, 3587
*ELEMENT, TYPE=C3D3
8845, 3666, 3633, 3681
*ELEMENT, TYPE=C3D3
8846, 3587, 3618, 3572
*ELEMENT, TYPE=C3D3
8847, 3587, 3572, 3537
*ELEMENT, TYPE=C3D3
8848, 3537, 3572, 3524
*ELEMENT, TYPE=C3D3
8849, 3524, 3572, 3558
*ELEMENT, TYPE=C3D3
8850, 3537, 3524, 3490
*ELEMENT, TYPE=C3D3
8851, 3490, 3524, 3476
*ELEMENT, TYPE=C3D3
8852, 3892, 3900, 3937
*ELEMENT, TYPE=C3D3
8853, 3937, 3900, 3947
*ELEMENT, TYPE=C3D3
8854, 3892, 3937, 3931
*ELEMENT, TYPE=C3D3
8855, 3947, 3900, 3910
*ELEMENT, TYPE=C3D3
8856, 3931, 3937, 3976
*ELEMENT, TYPE=C3D3
8857, 3910, 3900, 3865
*ELEMENT, TYPE=C3D3
8858, 3976, 3937, 3981
*ELEMENT, TYPE=C3D3
8859, 3910, 3865, 3872
*ELEMENT, TYPE=C3D3
8860, 3981, 3937, 3947
*ELEMENT, TYPE=C3D3
8861, 3910, 3872, 3916
*ELEMENT, TYPE=C3D3
8862, 3981, 3947, 3993
*ELEMENT, TYPE=C3D3
8863, 3993, 3947, 3956
*ELEMENT, TYPE=C3D3
8864, 3956, 3947, 3910
*ELEMENT, TYPE=C3D3
8865, 3956, 3910, 3916
*ELEMENT, TYPE=C3D3
8866, 3788, 3778, 3742
*ELEMENT, TYPE=C3D3
8867, 3742, 3778, 3731
*ELEMENT, TYPE=C3D3
8868, 3742, 3731, 3695
*ELEMENT, TYPE=C3D3
8869, 3695, 3731, 3685
*ELEMENT, TYPE=C3D3
8870, 3695, 3685, 3647
*ELEMENT, TYPE=C3D3
8871, 3931, 3976, 3971
*ELEMENT, TYPE=C3D3
8872, 3931, 3971, 3926
*ELEMENT, TYPE=C3D3
8873, 3931, 3926, 3887
*ELEMENT, TYPE=C3D3
8874, 3887, 3926, 3882
*ELEMENT, TYPE=C3D3
8875, 3931, 3887, 3892
*ELEMENT, TYPE=C3D3
8876, 3887, 3882, 3843
*ELEMENT, TYPE=C3D3
8877, 3843, 3882, 3837
*ELEMENT, TYPE=C3D3
8878, 3837, 3882, 3877
*ELEMENT, TYPE=C3D3
8879, 3843, 3837, 3798
*ELEMENT, TYPE=C3D3
8880, 3837, 3877, 3833
*ELEMENT, TYPE=C3D3
8881, 3798, 3837, 3792
*ELEMENT, TYPE=C3D3
8882, 3837, 3833, 3792
*ELEMENT, TYPE=C3D3
8883, 3070, 3022, 3040
*ELEMENT, TYPE=C3D3
8884, 3040, 3022, 2990
*ELEMENT, TYPE=C3D3
8885, 3070, 3040, 3090
*ELEMENT, TYPE=C3D3
8886, 3597, 3642, 3637
*ELEMENT, TYPE=C3D3
8887, 3637, 3642, 3682
*ELEMENT, TYPE=C3D3
8888, 3597, 3637, 3592
*ELEMENT, TYPE=C3D3
8889, 3682, 3642, 3687
*ELEMENT, TYPE=C3D3
8890, 3592, 3637, 3631
*ELEMENT, TYPE=C3D3
8891, 3631, 3637, 3677
*ELEMENT, TYPE=C3D3
8892, 3677, 3637, 3682
*ELEMENT, TYPE=C3D3
8893, 3631, 3677, 3671
*ELEMENT, TYPE=C3D3
8894, 3631, 3671, 3624
*ELEMENT, TYPE=C3D3
8895, 3686, 3699, 3733
*ELEMENT, TYPE=C3D3
8896, 3733, 3699, 3747
*ELEMENT, TYPE=C3D3
8897, 3686, 3733, 3719
*ELEMENT, TYPE=C3D3
8898, 3747, 3699, 3714
*ELEMENT, TYPE=C3D3
8899, 3733, 3747, 3782
*ELEMENT, TYPE=C3D3
8900, 3719, 3733, 3768
*ELEMENT, TYPE=C3D3
8901, 3714, 3699, 3666
*ELEMENT, TYPE=C3D3
8902, 3782, 3747, 3793
*ELEMENT, TYPE=C3D3
8903, 3719, 3768, 3753
*ELEMENT, TYPE=C3D3
8904, 3714, 3666, 3681
*ELEMENT, TYPE=C3D3
8905, 3793, 3747, 3763
*ELEMENT, TYPE=C3D3
8906, 3753, 3768, 3801
*ELEMENT, TYPE=C3D3
8907, 3763, 3747, 3714
*ELEMENT, TYPE=C3D3
8908, 3801, 3768, 3814
*ELEMENT, TYPE=C3D3
8909, 3753, 3801, 3787
*ELEMENT, TYPE=C3D3
8910, 3814, 3768, 3782
*ELEMENT, TYPE=C3D3
8911, 3801, 3814, 3847
*ELEMENT, TYPE=C3D3
8912, 3787, 3801, 3835
*ELEMENT, TYPE=C3D3
8913, 3782, 3768, 3733
*ELEMENT, TYPE=C3D3
8914, 3847, 3814, 3862
*ELEMENT, TYPE=C3D3
8915, 3801, 3847, 3835
*ELEMENT, TYPE=C3D3
8916, 3862, 3814, 3828
*ELEMENT, TYPE=C3D3
8917, 3835, 3847, 3881
*ELEMENT, TYPE=C3D3
8918, 3828, 3814, 3782
*ELEMENT, TYPE=C3D3
8919, 3862, 3828, 3876
*ELEMENT, TYPE=C3D3
8920, 3881, 3847, 3894
*ELEMENT, TYPE=C3D3
8921, 3835, 3881, 3870
*ELEMENT, TYPE=C3D3
8922, 3876, 3828, 3841
*ELEMENT, TYPE=C3D3
8923, 3862, 3876, 3911
*ELEMENT, TYPE=C3D3
8924, 3894, 3847, 3862
*ELEMENT, TYPE=C3D3
8925, 3870, 3881, 3917
*ELEMENT, TYPE=C3D3
8926, 3841, 3828, 3793
*ELEMENT, TYPE=C3D3
8927, 3911, 3876, 3922
*ELEMENT, TYPE=C3D3
8928, 3917, 3881, 3928
*ELEMENT, TYPE=C3D3
8929, 3870, 3917, 3905
*ELEMENT, TYPE=C3D3
8930, 3793, 3828, 3782
*ELEMENT, TYPE=C3D3
8931, 3928, 3881, 3894
*ELEMENT, TYPE=C3D3
8932, 3917, 3928, 3964
*ELEMENT, TYPE=C3D3
8933, 3905, 3917, 3951
*ELEMENT, TYPE=C3D3
8934, 3964, 3928, 3974
*ELEMENT, TYPE=C3D3
8935, 3917, 3964, 3951
*ELEMENT, TYPE=C3D3
8936, 3974, 3928, 3941
*ELEMENT, TYPE=C3D3
8937, 3964, 3974, 4010
*ELEMENT, TYPE=C3D3
8938, 3951, 3964, 3999
*ELEMENT, TYPE=C3D3
8939, 3941, 3928, 3894
*ELEMENT, TYPE=C3D3
8940, 3974, 3941, 3990
*ELEMENT, TYPE=C3D3
8941, 4010, 3974, 4021
*ELEMENT, TYPE=C3D3
8942, 3999, 3964, 4010
*ELEMENT, TYPE=C3D3
8943, 3990, 3941, 3957
*ELEMENT, TYPE=C3D3
8944, 3974, 3990, 4021
*ELEMENT, TYPE=C3D3
8945, 3957, 3941, 3911
*ELEMENT, TYPE=C3D3
8946, 3990, 3957, 4005
*ELEMENT, TYPE=C3D3
8947, 4021, 3990, 4037
*ELEMENT, TYPE=C3D3
8948, 3911, 3941, 3894
*ELEMENT, TYPE=C3D3
8949, 3957, 3911, 3922
*ELEMENT, TYPE=C3D3
8950, 3990, 4005, 4037
*ELEMENT, TYPE=C3D3
8951, 3719, 3753, 3706
*ELEMENT, TYPE=C3D3
8952, 3706, 3753, 3740
*ELEMENT, TYPE=C3D3
8953, 3740, 3753, 3787
*ELEMENT, TYPE=C3D3
8954, 3894, 3862, 3911
*ELEMENT, TYPE=C3D3
8955, 3951, 3999, 3985
*ELEMENT, TYPE=C3D3
8956, 3985, 3999, 4031
*ELEMENT, TYPE=C3D3
8957, 3951, 3985, 3936
*ELEMENT, TYPE=C3D3
8958, 4031, 3999, 4043
*ELEMENT, TYPE=C3D3
8959, 3985, 4031, 4019
*ELEMENT, TYPE=C3D3
8960, 3951, 3936, 3905
*ELEMENT, TYPE=C3D3
8961, 4031, 4043, 4078
*ELEMENT, TYPE=C3D3
8962, 4019, 4031, 4063
*ELEMENT, TYPE=C3D3
8963, 4078, 4043, 4090
*ELEMENT, TYPE=C3D3
8964, 4031, 4078, 4063
*ELEMENT, TYPE=C3D3
8965, 4090, 4043, 4055
*ELEMENT, TYPE=C3D3
8966, 4078, 4090, 4125
*ELEMENT, TYPE=C3D3
8967, 4063, 4078, 4113
*ELEMENT, TYPE=C3D3
8968, 4055, 4043, 4010
*ELEMENT, TYPE=C3D3
8969, 4125, 4090, 4137
*ELEMENT, TYPE=C3D3
8970, 4113, 4078, 4125
*ELEMENT, TYPE=C3D3
8971, 4063, 4113, 4100
*ELEMENT, TYPE=C3D3
8972, 4010, 4043, 3999
*ELEMENT, TYPE=C3D3
8973, 4113, 4125, 4160
*ELEMENT, TYPE=C3D3
8974, 4100, 4113, 4146
*ELEMENT, TYPE=C3D3
8975, 4063, 4100, 4054
*ELEMENT, TYPE=C3D3
8976, 4113, 4160, 4146
*ELEMENT, TYPE=C3D3
8977, 4054, 4100, 4091
*ELEMENT, TYPE=C3D3
8978, 4091, 4100, 4136
*ELEMENT, TYPE=C3D3
8979, 4054, 4091, 4047
*ELEMENT, TYPE=C3D3
8980, 4136, 4100, 4146
*ELEMENT, TYPE=C3D3
8981, 4091, 4136, 4126
*ELEMENT, TYPE=C3D3
8982, 4047, 4091, 4082
*ELEMENT, TYPE=C3D3
8983, 4136, 4146, 4181
*ELEMENT, TYPE=C3D3
8984, 4126, 4136, 4173
*ELEMENT, TYPE=C3D3
8985, 4082, 4091, 4126
*ELEMENT, TYPE=C3D3
8986, 4047, 4082, 4036
*ELEMENT, TYPE=C3D3
8987, 4173, 4136, 4181
*ELEMENT, TYPE=C3D3
8988, 4126, 4173, 4164
*ELEMENT, TYPE=C3D3
8989, 4036, 4082, 4071
*ELEMENT, TYPE=C3D3
8990, 4047, 4036, 4000
*ELEMENT, TYPE=C3D3
8991, 4126, 4164, 4116
*ELEMENT, TYPE=C3D3
8992, 4071, 4082, 4116
*ELEMENT, TYPE=C3D3
8993, 4000, 4036, 3989
*ELEMENT, TYPE=C3D3
8994, 4047, 4000, 4009
*ELEMENT, TYPE=C3D3
8995, 4116, 4164, 4153
*ELEMENT, TYPE=C3D3
8996, 4116, 4082, 4126
*ELEMENT, TYPE=C3D3
8997, 3989, 4036, 4024
*ELEMENT, TYPE=C3D3
8998, 4009, 4000, 3963
*ELEMENT, TYPE=C3D3
8999, 4153, 4164, 4200
*ELEMENT, TYPE=C3D3
9000, 4024, 4036, 4071
*ELEMENT, TYPE=C3D3
9001, 4009, 3963, 3973
*ELEMENT, TYPE=C3D3
9002, 4200, 4164, 4210
*ELEMENT, TYPE=C3D3
9003, 4024, 4071, 4060
*ELEMENT, TYPE=C3D3
9004, 4009, 3973, 4019
*ELEMENT, TYPE=C3D3
9005, 4210, 4164, 4173
*ELEMENT, TYPE=C3D3
9006, 4060, 4071, 4105
*ELEMENT, TYPE=C3D3
9007, 4019, 3973, 3985
*ELEMENT, TYPE=C3D3
9008, 4009, 4019, 4054
*ELEMENT, TYPE=C3D3
9009, 4060, 4105, 4096
*ELEMENT, TYPE=C3D3
9010, 3985, 3973, 3936
*ELEMENT, TYPE=C3D3
9011, 4054, 4019, 4063
*ELEMENT, TYPE=C3D3
9012, 4096, 4105, 4141
*ELEMENT, TYPE=C3D3
9013, 4141, 4105, 4153
*ELEMENT, TYPE=C3D3
9014, 4153, 4105, 4116
*ELEMENT, TYPE=C3D3
9015, 4141, 4153, 4187
*ELEMENT, TYPE=C3D3
9016, 4116, 4105, 4071
*ELEMENT, TYPE=C3D3
9017, 4187, 4153, 4200
*ELEMENT, TYPE=C3D3
9018, 4141, 4187, 4178
*ELEMENT, TYPE=C3D3
9019, 4187, 4200, 4233
*ELEMENT, TYPE=C3D3
9020, 4178, 4187, 4223
*ELEMENT, TYPE=C3D3
9021, 4187, 4233, 4223
*ELEMENT, TYPE=C3D3
9022, 4178, 4223, 4216
*ELEMENT, TYPE=C3D3
9023, 4216, 4223, 4261
*ELEMENT, TYPE=C3D3
9024, 4216, 4261, 4256
*ELEMENT, TYPE=C3D3
9025, 3989, 4024, 3978
*ELEMENT, TYPE=C3D3
9026, 3978, 4024, 4013
*ELEMENT, TYPE=C3D3
9027, 3989, 3978, 3942
*ELEMENT, TYPE=C3D3
9028, 4013, 4024, 4060
*ELEMENT, TYPE=C3D3
9029, 3942, 3978, 3933
*ELEMENT, TYPE=C3D3
9030, 4013, 4060, 4051
*ELEMENT, TYPE=C3D3
9031, 3933, 3978, 3967
*ELEMENT, TYPE=C3D3
9032, 4051, 4060, 4096
*ELEMENT, TYPE=C3D3
9033, 3967, 3978, 4013
*ELEMENT, TYPE=C3D3
9034, 3933, 3967, 3923
*ELEMENT, TYPE=C3D3
9035, 3923, 3967, 3961
*ELEMENT, TYPE=C3D3
9036, 3933, 3923, 3885
*ELEMENT, TYPE=C3D3
9037, 3961, 3967, 4007
*ELEMENT, TYPE=C3D3
9038, 3933, 3885, 3896
*ELEMENT, TYPE=C3D3
9039, 4007, 3967, 4013
*ELEMENT, TYPE=C3D3
9040, 3961, 4007, 4001
*ELEMENT, TYPE=C3D3
9041, 3933, 3896, 3942
*ELEMENT, TYPE=C3D3
9042, 4007, 4013, 4051
*ELEMENT, TYPE=C3D3
9043, 4009, 4054, 4047
*ELEMENT, TYPE=C3D3
9044, 3280, 3294, 3325
*ELEMENT, TYPE=C3D3
9045, 3280, 3325, 3318
*ELEMENT, TYPE=C3D3
9046, 3318, 3325, 3364
*ELEMENT, TYPE=C3D3
9047, 3364, 3325, 3376
*ELEMENT, TYPE=C3D3
9048, 3318, 3364, 3353
*ELEMENT, TYPE=C3D3
9049, 3353, 3364, 3401
*ELEMENT, TYPE=C3D3
9050, 3318, 3353, 3305
*ELEMENT, TYPE=C3D3
9051, 3196, 3183, 3149
*ELEMENT, TYPE=C3D3
9052, 3344, 3298, 3314
*ELEMENT, TYPE=C3D3
9053, 3314, 3298, 3264
*ELEMENT, TYPE=C3D3
9054, 3344, 3314, 3360
*ELEMENT, TYPE=C3D3
9055, 3264, 3298, 3249
*ELEMENT, TYPE=C3D3
9056, 3314, 3264, 3281
*ELEMENT, TYPE=C3D3
9057, 3344, 3360, 3393
*ELEMENT, TYPE=C3D3
9058, 3249, 3298, 3279
*ELEMENT, TYPE=C3D3
9059, 3281, 3264, 3233
*ELEMENT, TYPE=C3D3
9060, 3438, 3485, 3475
*ELEMENT, TYPE=C3D3
9061, 3475, 3485, 3521
*ELEMENT, TYPE=C3D3
9062, 3550, 3508, 3533
*ELEMENT, TYPE=C3D3
9063, 3533, 3508, 3474
*ELEMENT, TYPE=C3D3
9064, 3550, 3533, 3593
*ELEMENT, TYPE=C3D3
9065, 3533, 3474, 3493
*ELEMENT, TYPE=C3D3
9066, 2107, 2075, 2054
*ELEMENT, TYPE=C3D3
9067, 1041, 983, 1005
*ELEMENT, TYPE=C3D3
9068, 3799, 3834, 3788
*ELEMENT, TYPE=C3D3
9069, 59, 76, 69
*ELEMENT, TYPE=C3D3
9070, 3629, 3675, 3641
*ELEMENT, TYPE=C3D3
9071, 3641, 3675, 3683
*ELEMENT, TYPE=C3D3
9072, 3629, 3641, 3593
*ELEMENT, TYPE=C3D3
9073, 3683, 3675, 3722
*ELEMENT, TYPE=C3D3
9074, 3641, 3683, 3634
*ELEMENT, TYPE=C3D3
9075, 3641, 3634, 3593
*ELEMENT, TYPE=C3D3
9076, 3629, 3593, 3582
*ELEMENT, TYPE=C3D3
9077, 3683, 3722, 3727
*ELEMENT, TYPE=C3D3
9078, 3582, 3593, 3533
*ELEMENT, TYPE=C3D3
9079, 3550, 3593, 3585
*ELEMENT, TYPE=C3D3
9080, 3727, 3722, 3767
*ELEMENT, TYPE=C3D3
9081, 3683, 3727, 3713
*ELEMENT, TYPE=C3D3
9082, 3713, 3727, 3760
*ELEMENT, TYPE=C3D3
9083, 3760, 3727, 3767
*ELEMENT, TYPE=C3D3
9084, 3713, 3760, 3746
*ELEMENT, TYPE=C3D3
9085, 3746, 3760, 3791
*ELEMENT, TYPE=C3D3
9086, 3791, 3760, 3821
*ELEMENT, TYPE=C3D3
9087, 3767, 3722, 3759
*ELEMENT, TYPE=C3D3
9088, 3767, 3759, 3803
*ELEMENT, TYPE=C3D3
9089, 3767, 3803, 3811
*ELEMENT, TYPE=C3D3
9090, 3767, 3811, 3760
*ELEMENT, TYPE=C3D3
9091, 5470, 5425, 5471
*ELEMENT, TYPE=C3D3
9092, 2725, 2677, 2693
*ELEMENT, TYPE=C3D3
9093, 2725, 2693, 2744
*ELEMENT, TYPE=C3D3
9094, 3873, 3829, 3867
*ELEMENT, TYPE=C3D3
9095, 3873, 3867, 3914
*ELEMENT, TYPE=C3D3
9096, 3873, 3914, 3906
*ELEMENT, TYPE=C3D3
9097, 3008, 2969, 3016
*ELEMENT, TYPE=C3D3
9098, 3016, 2969, 2977
*ELEMENT, TYPE=C3D3
9099, 3008, 3016, 3053
*ELEMENT, TYPE=C3D3
9100, 2977, 2969, 2930
*ELEMENT, TYPE=C3D3
9101, 2930, 2969, 2922
*ELEMENT, TYPE=C3D3
9102, 2977, 2930, 2936
*ELEMENT, TYPE=C3D3
9103, 2930, 2922, 2885
*ELEMENT, TYPE=C3D3
9104, 5051, 5007, 5017
*ELEMENT, TYPE=C3D3
9105, 5017, 5007, 4971
*ELEMENT, TYPE=C3D3
9106, 5051, 5017, 5083
*ELEMENT, TYPE=C3D3
9107, 5017, 4971, 4990
*ELEMENT, TYPE=C3D3
9108, 4990, 4971, 4945
*ELEMENT, TYPE=C3D3
9109, 5017, 4990, 5028
*ELEMENT, TYPE=C3D3
9110, 5028, 4990, 4981
*ELEMENT, TYPE=C3D3
9111, 4945, 4971, 4925
*ELEMENT, TYPE=C3D3
9112, 4990, 4945, 4981
*ELEMENT, TYPE=C3D3
9113, 5028, 4981, 5015
*ELEMENT, TYPE=C3D3
9114, 5015, 4981, 4970
*ELEMENT, TYPE=C3D3
9115, 4970, 4981, 4934
*ELEMENT, TYPE=C3D3
9116, 4934, 4981, 4945
*ELEMENT, TYPE=C3D3
9117, 4970, 4934, 4926
*ELEMENT, TYPE=C3D3
9118, 4945, 4925, 4893
*ELEMENT, TYPE=C3D3
9119, 4945, 4893, 4911
*ELEMENT, TYPE=C3D3
9120, 4911, 4893, 4864
*ELEMENT, TYPE=C3D3
9121, 4945, 4911, 4934
*ELEMENT, TYPE=C3D3
9122, 4934, 4911, 4889
*ELEMENT, TYPE=C3D3
9123, 4889, 4911, 4864
*ELEMENT, TYPE=C3D3
9124, 4934, 4889, 4926
*ELEMENT, TYPE=C3D3
9125, 4864, 4893, 4846
*ELEMENT, TYPE=C3D3
9126, 4864, 4846, 4817
*ELEMENT, TYPE=C3D3
9127, 4864, 4817, 4833
*ELEMENT, TYPE=C3D3
9128, 4833, 4817, 4786
*ELEMENT, TYPE=C3D3
9129, 4864, 4833, 4889
*ELEMENT, TYPE=C3D3
9130, 4786, 4817, 4771
*ELEMENT, TYPE=C3D3
9131, 4833, 4786, 4799
*ELEMENT, TYPE=C3D3
9132, 4786, 4771, 4739
*ELEMENT, TYPE=C3D3
9133, 4799, 4786, 4752
*ELEMENT, TYPE=C3D3
9134, 4833, 4799, 4844
*ELEMENT, TYPE=C3D3
9135, 4786, 4739, 4752
*ELEMENT, TYPE=C3D3
9136, 4799, 4752, 4768
*ELEMENT, TYPE=C3D3
9137, 4833, 4844, 4889
*ELEMENT, TYPE=C3D3
9138, 4752, 4739, 4706
*ELEMENT, TYPE=C3D3
9139, 4799, 4768, 4816
*ELEMENT, TYPE=C3D3
9140, 4706, 4739, 4692
*ELEMENT, TYPE=C3D3
9141, 4752, 4706, 4721
*ELEMENT, TYPE=C3D3
9142, 4816, 4768, 4780
*ELEMENT, TYPE=C3D3
9143, 4706, 4692, 4659
*ELEMENT, TYPE=C3D3
9144, 4721, 4706, 4675
*ELEMENT, TYPE=C3D3
9145, 4706, 4659, 4675
*ELEMENT, TYPE=C3D3
9146, 4721, 4675, 4691
*ELEMENT, TYPE=C3D3
9147, 4675, 4659, 4629
*ELEMENT, TYPE=C3D3
9148, 4691, 4675, 4646
*ELEMENT, TYPE=C3D3
9149, 4721, 4691, 4740
*ELEMENT, TYPE=C3D3
9150, 4629, 4659, 4612
*ELEMENT, TYPE=C3D3
9151, 4675, 4629, 4646
*ELEMENT, TYPE=C3D3
9152, 4740, 4691, 4716
*ELEMENT, TYPE=C3D3
9153, 4629, 4612, 4584
*ELEMENT, TYPE=C3D3
9154, 4646, 4629, 4596
*ELEMENT, TYPE=C3D3
9155, 4716, 4691, 4661
*ELEMENT, TYPE=C3D3
9156, 4740, 4716, 4780
*ELEMENT, TYPE=C3D3
9157, 4596, 4629, 4584
*ELEMENT, TYPE=C3D3
9158, 4716, 4661, 4652
*ELEMENT, TYPE=C3D3
9159, 4596, 4584, 4547
*ELEMENT, TYPE=C3D3
9160, 4661, 4691, 4646
*ELEMENT, TYPE=C3D3
9161, 4661, 4646, 4613
*ELEMENT, TYPE=C3D3
9162, 4613, 4646, 4596
*ELEMENT, TYPE=C3D3
9163, 4661, 4613, 4652
*ELEMENT, TYPE=C3D3
9164, 4613, 4596, 4572
*ELEMENT, TYPE=C3D3
9165, 4613, 4572, 4566
*ELEMENT, TYPE=C3D3
9166, 4844, 4799, 4816
*ELEMENT, TYPE=C3D3
9167, 4844, 4816, 4881
*ELEMENT, TYPE=C3D3
9168, 4768, 4752, 4721
*ELEMENT, TYPE=C3D3
9169, 4768, 4721, 4740
*ELEMENT, TYPE=C3D3
9170, 4768, 4740, 4780
*ELEMENT, TYPE=C3D3
9171, 5496, 5523, 5529
*ELEMENT, TYPE=C3D3
9172, 5529, 5523, 5548
*ELEMENT, TYPE=C3D3
9173, 5496, 5529, 5503
*ELEMENT, TYPE=C3D3
9174, 5529, 5548, 5553
*ELEMENT, TYPE=C3D3
9175, 5503, 5529, 5534
*ELEMENT, TYPE=C3D3
9176, 5496, 5503, 5458
*ELEMENT, TYPE=C3D3
9177, 5529, 5553, 5534
*ELEMENT, TYPE=C3D3
9178, 5458, 5503, 5467
*ELEMENT, TYPE=C3D3
9179, 5496, 5458, 5450
*ELEMENT, TYPE=C3D3
9180, 5534, 5553, 5557
*ELEMENT, TYPE=C3D3
9181, 5458, 5467, 5422
*ELEMENT, TYPE=C3D3
9182, 5450, 5458, 5414
*ELEMENT, TYPE=C3D3
9183, 5557, 5553, 5572
*ELEMENT, TYPE=C3D3
9184, 5422, 5467, 5428
*ELEMENT, TYPE=C3D3
9185, 5458, 5422, 5414
*ELEMENT, TYPE=C3D3
9186, 5414, 5422, 5379
*ELEMENT, TYPE=C3D3
9187, 5379, 5422, 5385
*ELEMENT, TYPE=C3D3
9188, 5414, 5379, 5370
*ELEMENT, TYPE=C3D3
9189, 5385, 5422, 5428
*ELEMENT, TYPE=C3D3
9190, 5379, 5385, 5343
*ELEMENT, TYPE=C3D3
9191, 5370, 5379, 5335
*ELEMENT, TYPE=C3D3
9192, 5343, 5385, 5356
*ELEMENT, TYPE=C3D3
9193, 5379, 5343, 5335
*ELEMENT, TYPE=C3D3
9194, 5370, 5335, 5325
*ELEMENT, TYPE=C3D3
9195, 5343, 5356, 5310
*ELEMENT, TYPE=C3D3
9196, 5335, 5343, 5298
*ELEMENT, TYPE=C3D3
9197, 5370, 5325, 5360
*ELEMENT, TYPE=C3D3
9198, 5310, 5356, 5294
*ELEMENT, TYPE=C3D3
9199, 5298, 5343, 5310
*ELEMENT, TYPE=C3D3
9200, 5298, 5310, 5263
*ELEMENT, TYPE=C3D3
9201, 5263, 5310, 5294
*ELEMENT, TYPE=C3D3
9202, 5294, 5356, 5323
*ELEMENT, TYPE=C3D3
9203, 5298, 5263, 5254
*ELEMENT, TYPE=C3D3
9204, 5254, 5263, 5218
*ELEMENT, TYPE=C3D3
9205, 5298, 5254, 5289
*ELEMENT, TYPE=C3D3
9206, 5218, 5263, 5211
*ELEMENT, TYPE=C3D3
9207, 5218, 5211, 5175
*ELEMENT, TYPE=C3D3
9208, 5175, 5211, 5166
*ELEMENT, TYPE=C3D3
9209, 5175, 5166, 5132
*ELEMENT, TYPE=C3D3
9210, 5175, 5132, 5128
*ELEMENT, TYPE=C3D3
9211, 5218, 5175, 5209
*ELEMENT, TYPE=C3D3
9212, 5289, 5254, 5245
*ELEMENT, TYPE=C3D3
9213, 5298, 5289, 5335
*ELEMENT, TYPE=C3D3
9214, 5218, 5209, 5254
*ELEMENT, TYPE=C3D3
9215, 5245, 5254, 5209
*ELEMENT, TYPE=C3D3
9216, 5335, 5289, 5325
*ELEMENT, TYPE=C3D3
9217, 5356, 5428, 5411
*ELEMENT, TYPE=C3D3
9218, 1784, 1776, 1858
*ELEMENT, TYPE=C3D3
9219, 565, 574, 608
*ELEMENT, TYPE=C3D3
9220, 565, 608, 606
*ELEMENT, TYPE=C3D3
9221, 606, 608, 649
*ELEMENT, TYPE=C3D3
9222, 649, 608, 653
*ELEMENT, TYPE=C3D3
9223, 649, 653, 693
*ELEMENT, TYPE=C3D3
9224, 693, 653, 700
*ELEMENT, TYPE=C3D3
9225, 649, 693, 687
*ELEMENT, TYPE=C3D3
9226, 700, 653, 659
*ELEMENT, TYPE=C3D3
9227, 693, 700, 739
*ELEMENT, TYPE=C3D3
9228, 687, 693, 735
*ELEMENT, TYPE=C3D3
9229, 700, 659, 704
*ELEMENT, TYPE=C3D3
9230, 739, 700, 747
*ELEMENT, TYPE=C3D3
9231, 735, 693, 739
*ELEMENT, TYPE=C3D3
9232, 700, 704, 747
*ELEMENT, TYPE=C3D3
9233, 735, 739, 783
*ELEMENT, TYPE=C3D3
9234, 747, 704, 753
*ELEMENT, TYPE=C3D3
9235, 753, 704, 722
*ELEMENT, TYPE=C3D3
9236, 2358, 2304, 2350
*ELEMENT, TYPE=C3D3
9237, 3238, 3191, 3229
*ELEMENT, TYPE=C3D3
9238, 3238, 3229, 3275
*ELEMENT, TYPE=C3D3
9239, 3238, 3275, 3270
*ELEMENT, TYPE=C3D3
9240, 1654, 1672, 1615
*ELEMENT, TYPE=C3D3
9241, 1615, 1672, 1638
*ELEMENT, TYPE=C3D3
9242, 1654, 1615, 1567
*ELEMENT, TYPE=C3D3
9243, 1638, 1672, 1697
*ELEMENT, TYPE=C3D3
9244, 1615, 1638, 1583
*ELEMENT, TYPE=C3D3
9245, 1615, 1583, 1545
*ELEMENT, TYPE=C3D3
9246, 1583, 1638, 1585
*ELEMENT, TYPE=C3D3
9247, 1567, 1615, 1545
*ELEMENT, TYPE=C3D3
9248, 1654, 1567, 1629
*ELEMENT, TYPE=C3D3
9249, 1638, 1697, 1650
*ELEMENT, TYPE=C3D3
9250, 1629, 1567, 1562
*ELEMENT, TYPE=C3D3
9251, 2584, 2564, 2535
*ELEMENT, TYPE=C3D3
9252, 1431, 1499, 1490
*ELEMENT, TYPE=C3D3
9253, 1490, 1499, 1567
*ELEMENT, TYPE=C3D3
9254, 58, 45, 53
*ELEMENT, TYPE=C3D3
9255, 3772, 3735, 3728
*ELEMENT, TYPE=C3D3
9256, 3728, 3735, 3688
*ELEMENT, TYPE=C3D3
9257, 3772, 3728, 3770
*ELEMENT, TYPE=C3D3
9258, 3688, 3735, 3694
*ELEMENT, TYPE=C3D3
9259, 3770, 3728, 3724
*ELEMENT, TYPE=C3D3
9260, 3772, 3770, 3812
*ELEMENT, TYPE=C3D3
9261, 3688, 3694, 3650
*ELEMENT, TYPE=C3D3
9262, 3770, 3724, 3765
*ELEMENT, TYPE=C3D3
9263, 4139, 4094, 4119
*ELEMENT, TYPE=C3D3
9264, 413, 411, 446
*ELEMENT, TYPE=C3D3
9265, 446, 411, 439
*ELEMENT, TYPE=C3D3
9266, 413, 446, 451
*ELEMENT, TYPE=C3D3
9267, 439, 411, 406
*ELEMENT, TYPE=C3D3
9268, 406, 411, 375
*ELEMENT, TYPE=C3D3
9269, 3117, 3110, 3068
*ELEMENT, TYPE=C3D3
9270, 3068, 3110, 3064
*ELEMENT, TYPE=C3D3
9271, 3064, 3110, 3106
*ELEMENT, TYPE=C3D3
9272, 2515, 2506, 2470
*ELEMENT, TYPE=C3D3
9273, 2470, 2506, 2465
*ELEMENT, TYPE=C3D3
9274, 2515, 2470, 2473
*ELEMENT, TYPE=C3D3
9275, 2470, 2465, 2421
*ELEMENT, TYPE=C3D3
9276, 2473, 2470, 2427
*ELEMENT, TYPE=C3D3
9277, 2515, 2473, 2520
*ELEMENT, TYPE=C3D3
9278, 2470, 2421, 2427
*ELEMENT, TYPE=C3D3
9279, 2473, 2427, 2436
*ELEMENT, TYPE=C3D3
9280, 2520, 2473, 2482
*ELEMENT, TYPE=C3D3
9281, 2427, 2421, 2383
*ELEMENT, TYPE=C3D3
9282, 2436, 2427, 2388
*ELEMENT, TYPE=C3D3
9283, 2482, 2473, 2436
*ELEMENT, TYPE=C3D3
9284, 2383, 2421, 2375
*ELEMENT, TYPE=C3D3
9285, 2436, 2388, 2396
*ELEMENT, TYPE=C3D3
9286, 2375, 2421, 2417
*ELEMENT, TYPE=C3D3
9287, 2383, 2375, 2337
*ELEMENT, TYPE=C3D3
9288, 2396, 2388, 2347
*ELEMENT, TYPE=C3D3
9289, 2417, 2421, 2465
*ELEMENT, TYPE=C3D3
9290, 2337, 2375, 2327
*ELEMENT, TYPE=C3D3
9291, 2347, 2388, 2340
*ELEMENT, TYPE=C3D3
9292, 2396, 2347, 2360
*ELEMENT, TYPE=C3D3
9293, 2327, 2375, 2371
*ELEMENT, TYPE=C3D3
9294, 2340, 2388, 2383
*ELEMENT, TYPE=C3D3
9295, 2347, 2340, 2298
*ELEMENT, TYPE=C3D3
9296, 2360, 2347, 2309
*ELEMENT, TYPE=C3D3
9297, 2371, 2375, 2417
*ELEMENT, TYPE=C3D3
9298, 2298, 2340, 2293
*ELEMENT, TYPE=C3D3
9299, 2360, 2309, 2321
*ELEMENT, TYPE=C3D3
9300, 2293, 2340, 2337
*ELEMENT, TYPE=C3D3
9301, 2298, 2293, 2251
*ELEMENT, TYPE=C3D3
9302, 2360, 2321, 2372
*ELEMENT, TYPE=C3D3
9303, 2337, 2340, 2383
*ELEMENT, TYPE=C3D3
9304, 2251, 2293, 2245
*ELEMENT, TYPE=C3D3
9305, 2360, 2372, 2408
*ELEMENT, TYPE=C3D3
9306, 2245, 2293, 2287
*ELEMENT, TYPE=C3D3
9307, 2251, 2245, 2203
*ELEMENT, TYPE=C3D3
9308, 2408, 2372, 2418
*ELEMENT, TYPE=C3D3
9309, 2287, 2293, 2337
*ELEMENT, TYPE=C3D3
9310, 2203, 2245, 2196
*ELEMENT, TYPE=C3D3
9311, 2408, 2418, 2456
*ELEMENT, TYPE=C3D3
9312, 2196, 2245, 2238
*ELEMENT, TYPE=C3D3
9313, 2456, 2418, 2468
*ELEMENT, TYPE=C3D3
9314, 2408, 2456, 2447
*ELEMENT, TYPE=C3D3
9315, 2238, 2245, 2287
*ELEMENT, TYPE=C3D3
9316, 2456, 2468, 2503
*ELEMENT, TYPE=C3D3
9317, 2447, 2456, 2495
*ELEMENT, TYPE=C3D3
9318, 2456, 2503, 2495
*ELEMENT, TYPE=C3D3
9319, 2447, 2495, 2482
*ELEMENT, TYPE=C3D3
9320, 2482, 2495, 2532
*ELEMENT, TYPE=C3D3
9321, 2447, 2482, 2436
*ELEMENT, TYPE=C3D3
9322, 2482, 2532, 2520
*ELEMENT, TYPE=C3D3
9323, 2447, 2436, 2396
*ELEMENT, TYPE=C3D3
9324, 2520, 2532, 2570
*ELEMENT, TYPE=C3D3
9325, 2447, 2396, 2408
*ELEMENT, TYPE=C3D3
9326, 2520, 2570, 2562
*ELEMENT, TYPE=C3D3
9327, 2408, 2396, 2360
*ELEMENT, TYPE=C3D3
9328, 2562, 2570, 2607
*ELEMENT, TYPE=C3D3
9329, 2520, 2562, 2515
*ELEMENT, TYPE=C3D3
9330, 2383, 2388, 2427
*ELEMENT, TYPE=C3D3
9331, 2309, 2347, 2298
*ELEMENT, TYPE=C3D3
9332, 2309, 2298, 2260
*ELEMENT, TYPE=C3D3
9333, 2260, 2298, 2251
*ELEMENT, TYPE=C3D3
9334, 2238, 2287, 2281
*ELEMENT, TYPE=C3D3
9335, 2281, 2287, 2327
*ELEMENT, TYPE=C3D3
9336, 2238, 2281, 2234
*ELEMENT, TYPE=C3D3
9337, 2327, 2287, 2337
*ELEMENT, TYPE=C3D3
9338, 2238, 2234, 2190
*ELEMENT, TYPE=C3D3
9339, 2238, 2190, 2196
*ELEMENT, TYPE=C3D3
9340, 2196, 2190, 2149
*ELEMENT, TYPE=C3D3
9341, 2371, 2417, 2412
*ELEMENT, TYPE=C3D3
9342, 2149, 2190, 2141
*ELEMENT, TYPE=C3D3
9343, 5369, 5323, 5356
*ELEMENT, TYPE=C3D3
9344, 3938, 3946, 3901
*ELEMENT, TYPE=C3D3
9345, 3901, 3946, 3909
*ELEMENT, TYPE=C3D3
9346, 3909, 3946, 3952
*ELEMENT, TYPE=C3D3
9347, 3901, 3909, 3863
*ELEMENT, TYPE=C3D3
9348, 3952, 3946, 3992
*ELEMENT, TYPE=C3D3
9349, 3909, 3952, 3913
*ELEMENT, TYPE=C3D3
9350, 3863, 3909, 3868
*ELEMENT, TYPE=C3D3
9351, 3952, 3992, 3997
*ELEMENT, TYPE=C3D3
9352, 3913, 3952, 3959
*ELEMENT, TYPE=C3D3
9353, 3909, 3913, 3868
*ELEMENT, TYPE=C3D3
9354, 3952, 3997, 3959
*ELEMENT, TYPE=C3D3
9355, 3913, 3959, 3920
*ELEMENT, TYPE=C3D3
9356, 3868, 3913, 3875
*ELEMENT, TYPE=C3D3
9357, 3920, 3959, 3965
*ELEMENT, TYPE=C3D3
9358, 3875, 3913, 3920
*ELEMENT, TYPE=C3D3
9359, 3868, 3875, 3830
*ELEMENT, TYPE=C3D3
9360, 3965, 3959, 4004
*ELEMENT, TYPE=C3D3
9361, 3875, 3920, 3879
*ELEMENT, TYPE=C3D3
9362, 3830, 3875, 3836
*ELEMENT, TYPE=C3D3
9363, 4004, 3959, 3997
*ELEMENT, TYPE=C3D3
9364, 3879, 3920, 3924
*ELEMENT, TYPE=C3D3
9365, 3875, 3879, 3836
*ELEMENT, TYPE=C3D3
9366, 3924, 3920, 3965
*ELEMENT, TYPE=C3D3
9367, 3924, 3965, 3970
*ELEMENT, TYPE=C3D3
9368, 3970, 3965, 4008
*ELEMENT, TYPE=C3D3
9369, 3924, 3970, 3932
*ELEMENT, TYPE=C3D3
9370, 4008, 3965, 4004
*ELEMENT, TYPE=C3D3
9371, 3970, 4008, 4014
*ELEMENT, TYPE=C3D3
9372, 3932, 3970, 3977
*ELEMENT, TYPE=C3D3
9373, 4014, 4008, 4052
*ELEMENT, TYPE=C3D3
9374, 3970, 4014, 3977
*ELEMENT, TYPE=C3D3
9375, 3977, 4014, 4022
*ELEMENT, TYPE=C3D3
9376, 3977, 4022, 3987
*ELEMENT, TYPE=C3D3
9377, 3977, 3987, 3939
*ELEMENT, TYPE=C3D3
9378, 3977, 3939, 3932
*ELEMENT, TYPE=C3D3
9379, 3879, 3924, 3886
*ELEMENT, TYPE=C3D3
9380, 3886, 3924, 3932
*ELEMENT, TYPE=C3D3
9381, 809, 832, 778
*ELEMENT, TYPE=C3D3
9382, 657, 611, 638
*ELEMENT, TYPE=C3D3
9383, 657, 638, 688
*ELEMENT, TYPE=C3D3
9384, 3160, 3109, 3136
*ELEMENT, TYPE=C3D3
9385, 3396, 3348, 3371
*ELEMENT, TYPE=C3D3
9386, 3371, 3348, 3319
*ELEMENT, TYPE=C3D3
9387, 3396, 3371, 3414
*ELEMENT, TYPE=C3D3
9388, 3371, 3319, 3358
*ELEMENT, TYPE=C3D3
9389, 3414, 3371, 3403
*ELEMENT, TYPE=C3D3
9390, 3414, 3403, 3449
*ELEMENT, TYPE=C3D3
9391, 3414, 3449, 3443
*ELEMENT, TYPE=C3D3
9392, 3443, 3449, 3493
*ELEMENT, TYPE=C3D3
9393, 3414, 3443, 3396
*ELEMENT, TYPE=C3D3
9394, 3033, 2994, 3042
*ELEMENT, TYPE=C3D3
9395, 1267, 1336, 1296
*ELEMENT, TYPE=C3D3
9396, 1296, 1336, 1366
*ELEMENT, TYPE=C3D3
9397, 2684, 2724, 2675
*ELEMENT, TYPE=C3D3
9398, 2675, 2724, 2718
*ELEMENT, TYPE=C3D3
9399, 2684, 2675, 2624
*ELEMENT, TYPE=C3D3
9400, 2634, 2675, 2673
*ELEMENT, TYPE=C3D3
9401, 2673, 2675, 2718
*ELEMENT, TYPE=C3D3
9402, 2673, 2718, 2711
*ELEMENT, TYPE=C3D3
9403, 2634, 2673, 2610
*ELEMENT, TYPE=C3D3
9404, 2711, 2718, 2755
*ELEMENT, TYPE=C3D3
9405, 2673, 2711, 2678
*ELEMENT, TYPE=C3D3
9406, 2678, 2711, 2727
*ELEMENT, TYPE=C3D3
9407, 2727, 2711, 2755
*ELEMENT, TYPE=C3D3
9408, 2678, 2727, 2700
*ELEMENT, TYPE=C3D3
9409, 2700, 2727, 2746
*ELEMENT, TYPE=C3D3
9410, 2746, 2727, 2777
*ELEMENT, TYPE=C3D3
9411, 2700, 2746, 2707
*ELEMENT, TYPE=C3D3
9412, 2777, 2727, 2755
*ELEMENT, TYPE=C3D3
9413, 2746, 2777, 2809
*ELEMENT, TYPE=C3D3
9414, 2707, 2766, 2742
*ELEMENT, TYPE=C3D3
9415, 2700, 2707, 2669
*ELEMENT, TYPE=C3D3
9416, 2669, 2707, 2691
*ELEMENT, TYPE=C3D3
9417, 2691, 2707, 2742
*ELEMENT, TYPE=C3D3
9418, 2755, 2718, 2763
*ELEMENT, TYPE=C3D3
9419, 2755, 2763, 2800
*ELEMENT, TYPE=C3D3
9420, 2755, 2800, 2795
*ELEMENT, TYPE=C3D3
9421, 2795, 2800, 2841
*ELEMENT, TYPE=C3D3
9422, 2755, 2795, 2777
*ELEMENT, TYPE=C3D3
9423, 2777, 2795, 2831
*ELEMENT, TYPE=C3D3
9424, 2831, 2795, 2841
*ELEMENT, TYPE=C3D3
9425, 2777, 2831, 2809
*ELEMENT, TYPE=C3D3
9426, 2746, 2809, 2766
*ELEMENT, TYPE=C3D3
9427, 2718, 2724, 2763
*ELEMENT, TYPE=C3D3
9428, 2766, 2809, 2826
*ELEMENT, TYPE=C3D3
9429, 2746, 2766, 2707
*ELEMENT, TYPE=C3D3
9430, 2742, 2766, 2804
*ELEMENT, TYPE=C3D3
9431, 1058, 1009, 1063
*ELEMENT, TYPE=C3D3
9432, 1063, 1009, 1012
*ELEMENT, TYPE=C3D3
9433, 1012, 1009, 957
*ELEMENT, TYPE=C3D3
9434, 1012, 957, 966
*ELEMENT, TYPE=C3D3
9435, 966, 957, 912
*ELEMENT, TYPE=C3D3
9436, 966, 912, 919
*ELEMENT, TYPE=C3D3
9437, 2367, 2333, 2373
*ELEMENT, TYPE=C3D3
9438, 2373, 2312, 2365
*ELEMENT, TYPE=C3D3
9439, 526, 571, 549
*ELEMENT, TYPE=C3D3
9440, 4711, 4665, 4687
*ELEMENT, TYPE=C3D3
9441, 4687, 4665, 4639
*ELEMENT, TYPE=C3D3
9442, 4711, 4687, 4736
*ELEMENT, TYPE=C3D3
9443, 4639, 4665, 4617
*ELEMENT, TYPE=C3D3
9444, 4687, 4639, 4666
*ELEMENT, TYPE=C3D3
9445, 4736, 4687, 4713
*ELEMENT, TYPE=C3D3
9446, 4639, 4617, 4594
*ELEMENT, TYPE=C3D3
9447, 4687, 4666, 4713
*ELEMENT, TYPE=C3D3
9448, 4594, 4617, 4568
*ELEMENT, TYPE=C3D3
9449, 4639, 4594, 4618
*ELEMENT, TYPE=C3D3
9450, 4713, 4666, 4689
*ELEMENT, TYPE=C3D3
9451, 4594, 4568, 4542
*ELEMENT, TYPE=C3D3
9452, 4618, 4594, 4564
*ELEMENT, TYPE=C3D3
9453, 4639, 4618, 4666
*ELEMENT, TYPE=C3D3
9454, 4689, 4666, 4643
*ELEMENT, TYPE=C3D3
9455, 4542, 4568, 4520
*ELEMENT, TYPE=C3D3
9456, 4666, 4618, 4643
*ELEMENT, TYPE=C3D3
9457, 4689, 4643, 4693
*ELEMENT, TYPE=C3D3
9458, 4689, 4693, 4731
*ELEMENT, TYPE=C3D3
9459, 4689, 4731, 4713
*ELEMENT, TYPE=C3D3
9460, 4542, 4482, 4521
*ELEMENT, TYPE=C3D3
9461, 4542, 4521, 4564
*ELEMENT, TYPE=C3D3
9462, 4643, 4618, 4580
*ELEMENT, TYPE=C3D3
9463, 4711, 4736, 4758
*ELEMENT, TYPE=C3D3
9464, 4758, 4736, 4785
*ELEMENT, TYPE=C3D3
9465, 4785, 4736, 4761
*ELEMENT, TYPE=C3D3
9466, 4758, 4785, 4806
*ELEMENT, TYPE=C3D3
9467, 4761, 4736, 4713
*ELEMENT, TYPE=C3D3
9468, 4806, 4785, 4832
*ELEMENT, TYPE=C3D3
9469, 4761, 4713, 4731
*ELEMENT, TYPE=C3D3
9470, 4832, 4785, 4812
*ELEMENT, TYPE=C3D3
9471, 4785, 4761, 4812
*ELEMENT, TYPE=C3D3
9472, 4806, 4832, 4853
*ELEMENT, TYPE=C3D3
9473, 4853, 4832, 4896
*ELEMENT, TYPE=C3D3
9474, 4594, 4542, 4564
*ELEMENT, TYPE=C3D3
9475, 634, 678, 674
*ELEMENT, TYPE=C3D3
9476, 634, 674, 628
*ELEMENT, TYPE=C3D3
9477, 628, 674, 671
*ELEMENT, TYPE=C3D3
9478, 3713, 3664, 3683
*ELEMENT, TYPE=C3D3
9479, 4191, 4232, 4183
*ELEMENT, TYPE=C3D3
9480, 4845, 4801, 4808
*ELEMENT, TYPE=C3D3
9481, 4808, 4801, 4764
*ELEMENT, TYPE=C3D3
9482, 4845, 4808, 4851
*ELEMENT, TYPE=C3D3
9483, 4764, 4801, 4757
*ELEMENT, TYPE=C3D3
9484, 4808, 4764, 4769
*ELEMENT, TYPE=C3D3
9485, 4851, 4808, 4811
*ELEMENT, TYPE=C3D3
9486, 4845, 4851, 4888
*ELEMENT, TYPE=C3D3
9487, 4769, 4764, 4727
*ELEMENT, TYPE=C3D3
9488, 4851, 4811, 4855
*ELEMENT, TYPE=C3D3
9489, 4888, 4851, 4894
*ELEMENT, TYPE=C3D3
9490, 4727, 4764, 4720
*ELEMENT, TYPE=C3D3
9491, 4855, 4811, 4820
*ELEMENT, TYPE=C3D3
9492, 4894, 4851, 4855
*ELEMENT, TYPE=C3D3
9493, 4720, 4764, 4757
*ELEMENT, TYPE=C3D3
9494, 4727, 4720, 4683
*ELEMENT, TYPE=C3D3
9495, 4820, 4811, 4775
*ELEMENT, TYPE=C3D3
9496, 4720, 4757, 4717
*ELEMENT, TYPE=C3D3
9497, 4683, 4720, 4676
*ELEMENT, TYPE=C3D3
9498, 4775, 4811, 4769
*ELEMENT, TYPE=C3D3
9499, 4820, 4775, 4784
*ELEMENT, TYPE=C3D3
9500, 4720, 4717, 4676
*ELEMENT, TYPE=C3D3
9501, 4769, 4811, 4808
*ELEMENT, TYPE=C3D3
9502, 4820, 4784, 4827
*ELEMENT, TYPE=C3D3
9503, 4676, 4717, 4673
*ELEMENT, TYPE=C3D3
9504, 4827, 4784, 4791
*ELEMENT, TYPE=C3D3
9505, 4676, 4673, 4633
*ELEMENT, TYPE=C3D3
9506, 4791, 4784, 4745
*ELEMENT, TYPE=C3D3
9507, 4676, 4633, 4638
*ELEMENT, TYPE=C3D3
9508, 4745, 4784, 4738
*ELEMENT, TYPE=C3D3
9509, 4638, 4633, 4595
*ELEMENT, TYPE=C3D3
9510, 4676, 4638, 4683
*ELEMENT, TYPE=C3D3
9511, 4738, 4784, 4775
*ELEMENT, TYPE=C3D3
9512, 4595, 4633, 4592
*ELEMENT, TYPE=C3D3
9513, 4683, 4638, 4644
*ELEMENT, TYPE=C3D3
9514, 4595, 4592, 4551
*ELEMENT, TYPE=C3D3
9515, 4644, 4638, 4602
*ELEMENT, TYPE=C3D3
9516, 4683, 4644, 4686
*ELEMENT, TYPE=C3D3
9517, 4595, 4551, 4558
*ELEMENT, TYPE=C3D3
9518, 4602, 4638, 4595
*ELEMENT, TYPE=C3D3
9519, 4686, 4644, 4649
*ELEMENT, TYPE=C3D3
9520, 4595, 4558, 4602
*ELEMENT, TYPE=C3D3
9521, 4649, 4644, 4605
*ELEMENT, TYPE=C3D3
9522, 4602, 4558, 4561
*ELEMENT, TYPE=C3D3
9523, 4605, 4644, 4602
*ELEMENT, TYPE=C3D3
9524, 4649, 4605, 4611
*ELEMENT, TYPE=C3D3
9525, 4561, 4558, 4518
*ELEMENT, TYPE=C3D3
9526, 4611, 4605, 4567
*ELEMENT, TYPE=C3D3
9527, 4649, 4611, 4656
*ELEMENT, TYPE=C3D3
9528, 4561, 4518, 4523
*ELEMENT, TYPE=C3D3
9529, 4567, 4605, 4561
*ELEMENT, TYPE=C3D3
9530, 4656, 4611, 4620
*ELEMENT, TYPE=C3D3
9531, 4561, 4523, 4567
*ELEMENT, TYPE=C3D3
9532, 4561, 4605, 4602
*ELEMENT, TYPE=C3D3
9533, 4620, 4611, 4576
*ELEMENT, TYPE=C3D3
9534, 4656, 4620, 4663
*ELEMENT, TYPE=C3D3
9535, 4567, 4523, 4531
*ELEMENT, TYPE=C3D3
9536, 4576, 4611, 4567
*ELEMENT, TYPE=C3D3
9537, 4663, 4620, 4627
*ELEMENT, TYPE=C3D3
9538, 4531, 4523, 4486
*ELEMENT, TYPE=C3D3
9539, 4576, 4567, 4531
*ELEMENT, TYPE=C3D3
9540, 4627, 4620, 4583
*ELEMENT, TYPE=C3D3
9541, 4531, 4486, 4495
*ELEMENT, TYPE=C3D3
9542, 4576, 4531, 4539
*ELEMENT, TYPE=C3D3
9543, 4583, 4620, 4576
*ELEMENT, TYPE=C3D3
9544, 4531, 4495, 4539
*ELEMENT, TYPE=C3D3
9545, 4576, 4539, 4583
*ELEMENT, TYPE=C3D3
9546, 4539, 4495, 4502
*ELEMENT, TYPE=C3D3
9547, 4583, 4539, 4548
*ELEMENT, TYPE=C3D3
9548, 4502, 4495, 4456
*ELEMENT, TYPE=C3D3
9549, 4539, 4502, 4548
*ELEMENT, TYPE=C3D3
9550, 4502, 4456, 4464
*ELEMENT, TYPE=C3D3
9551, 4548, 4502, 4510
*ELEMENT, TYPE=C3D3
9552, 4502, 4464, 4510
*ELEMENT, TYPE=C3D3
9553, 4548, 4510, 4554
*ELEMENT, TYPE=C3D3
9554, 4510, 4464, 4469
*ELEMENT, TYPE=C3D3
9555, 4554, 4510, 4514
*ELEMENT, TYPE=C3D3
9556, 4548, 4554, 4591
*ELEMENT, TYPE=C3D3
9557, 4469, 4464, 4426
*ELEMENT, TYPE=C3D3
9558, 4510, 4469, 4514
*ELEMENT, TYPE=C3D3
9559, 4591, 4554, 4597
*ELEMENT, TYPE=C3D3
9560, 4469, 4426, 4433
*ELEMENT, TYPE=C3D3
9561, 4514, 4469, 4477
*ELEMENT, TYPE=C3D3
9562, 4597, 4554, 4559
*ELEMENT, TYPE=C3D3
9563, 4591, 4597, 4635
*ELEMENT, TYPE=C3D3
9564, 4469, 4433, 4477
*ELEMENT, TYPE=C3D3
9565, 4559, 4554, 4514
*ELEMENT, TYPE=C3D3
9566, 4635, 4597, 4640
*ELEMENT, TYPE=C3D3
9567, 4477, 4433, 4442
*ELEMENT, TYPE=C3D3
9568, 4559, 4514, 4525
*ELEMENT, TYPE=C3D3
9569, 4640, 4597, 4604
*ELEMENT, TYPE=C3D3
9570, 4635, 4640, 4679
*ELEMENT, TYPE=C3D3
9571, 4442, 4433, 4398
*ELEMENT, TYPE=C3D3
9572, 4604, 4597, 4559
*ELEMENT, TYPE=C3D3
9573, 4635, 4679, 4672
*ELEMENT, TYPE=C3D3
9574, 4442, 4398, 4408
*ELEMENT, TYPE=C3D3
9575, 4672, 4679, 4718
*ELEMENT, TYPE=C3D3
9576, 4635, 4672, 4627
*ELEMENT, TYPE=C3D3
9577, 4442, 4408, 4454
*ELEMENT, TYPE=C3D3
9578, 4718, 4679, 4723
*ELEMENT, TYPE=C3D3
9579, 4627, 4672, 4663
*ELEMENT, TYPE=C3D3
9580, 4454, 4408, 4418
*ELEMENT, TYPE=C3D3
9581, 4723, 4679, 4684
*ELEMENT, TYPE=C3D3
9582, 4663, 4672, 4707
*ELEMENT, TYPE=C3D3
9583, 4454, 4418, 4463
*ELEMENT, TYPE=C3D3
9584, 4684, 4679, 4640
*ELEMENT, TYPE=C3D3
9585, 4707, 4672, 4718
*ELEMENT, TYPE=C3D3
9586, 4463, 4418, 4428
*ELEMENT, TYPE=C3D3
9587, 4707, 4718, 4751
*ELEMENT, TYPE=C3D3
9588, 4428, 4418, 4382
*ELEMENT, TYPE=C3D3
9589, 4463, 4428, 4471
*ELEMENT, TYPE=C3D3
9590, 4751, 4718, 4760
*ELEMENT, TYPE=C3D3
9591, 4382, 4418, 4372
*ELEMENT, TYPE=C3D3
9592, 4471, 4428, 4436
*ELEMENT, TYPE=C3D3
9593, 4760, 4718, 4723
*ELEMENT, TYPE=C3D3
9594, 4372, 4418, 4408
*ELEMENT, TYPE=C3D3
9595, 4436, 4428, 4391
*ELEMENT, TYPE=C3D3
9596, 4391, 4428, 4382
*ELEMENT, TYPE=C3D3
9597, 4436, 4391, 4401
*ELEMENT, TYPE=C3D3
9598, 4391, 4382, 4345
*ELEMENT, TYPE=C3D3
9599, 4401, 4391, 4354
*ELEMENT, TYPE=C3D3
9600, 4436, 4401, 4447
*ELEMENT, TYPE=C3D3
9601, 4391, 4345, 4354
*ELEMENT, TYPE=C3D3
9602, 4447, 4401, 4415
*ELEMENT, TYPE=C3D3
9603, 4415, 4401, 4369
*ELEMENT, TYPE=C3D3
9604, 4447, 4415, 4460
*ELEMENT, TYPE=C3D3
9605, 4369, 4401, 4354
*ELEMENT, TYPE=C3D3
9606, 4415, 4369, 4380
*ELEMENT, TYPE=C3D3
9607, 4460, 4415, 4424
*ELEMENT, TYPE=C3D3
9608, 4380, 4369, 4334
*ELEMENT, TYPE=C3D3
9609, 4415, 4380, 4424
*ELEMENT, TYPE=C3D3
9610, 4334, 4369, 4320
*ELEMENT, TYPE=C3D3
9611, 4424, 4380, 4390
*ELEMENT, TYPE=C3D3
9612, 4320, 4369, 4354
*ELEMENT, TYPE=C3D3
9613, 4390, 4380, 4344
*ELEMENT, TYPE=C3D3
9614, 4424, 4390, 4437
*ELEMENT, TYPE=C3D3
9615, 4344, 4380, 4334
*ELEMENT, TYPE=C3D3
9616, 4390, 4344, 4355
*ELEMENT, TYPE=C3D3
9617, 4437, 4390, 4403
*ELEMENT, TYPE=C3D3
9618, 4344, 4334, 4297
*ELEMENT, TYPE=C3D3
9619, 4355, 4344, 4310
*ELEMENT, TYPE=C3D3
9620, 4403, 4390, 4355
*ELEMENT, TYPE=C3D3
9621, 4344, 4297, 4310
*ELEMENT, TYPE=C3D3
9622, 4403, 4355, 4371
*ELEMENT, TYPE=C3D3
9623, 4371, 4355, 4324
*ELEMENT, TYPE=C3D3
9624, 4403, 4371, 4419
*ELEMENT, TYPE=C3D3
9625, 4324, 4355, 4310
*ELEMENT, TYPE=C3D3
9626, 4371, 4324, 4339
*ELEMENT, TYPE=C3D3
9627, 4419, 4371, 4385
*ELEMENT, TYPE=C3D3
9628, 4324, 4310, 4274
*ELEMENT, TYPE=C3D3
9629, 4339, 4324, 4293
*ELEMENT, TYPE=C3D3
9630, 4385, 4371, 4339
*ELEMENT, TYPE=C3D3
9631, 4324, 4274, 4293
*ELEMENT, TYPE=C3D3
9632, 4385, 4339, 4350
*ELEMENT, TYPE=C3D3
9633, 4350, 4339, 4305
*ELEMENT, TYPE=C3D3
9634, 4385, 4350, 4395
*ELEMENT, TYPE=C3D3
9635, 4305, 4339, 4293
*ELEMENT, TYPE=C3D3
9636, 4350, 4305, 4317
*ELEMENT, TYPE=C3D3
9637, 4395, 4350, 4365
*ELEMENT, TYPE=C3D3
9638, 4317, 4305, 4270
*ELEMENT, TYPE=C3D3
9639, 4350, 4317, 4365
*ELEMENT, TYPE=C3D3
9640, 4270, 4305, 4259
*ELEMENT, TYPE=C3D3
9641, 4259, 4305, 4293
*ELEMENT, TYPE=C3D3
9642, 4525, 4514, 4477
*ELEMENT, TYPE=C3D3
9643, 4525, 4477, 4490
*ELEMENT, TYPE=C3D3
9644, 4490, 4477, 4442
*ELEMENT, TYPE=C3D3
9645, 4490, 4442, 4454
*ELEMENT, TYPE=C3D3
9646, 4490, 4454, 4499
*ELEMENT, TYPE=C3D3
9647, 4499, 4454, 4463
*ELEMENT, TYPE=C3D3
9648, 4499, 4463, 4509
*ELEMENT, TYPE=C3D3
9649, 4509, 4463, 4471
*ELEMENT, TYPE=C3D3
9650, 4509, 4471, 4517
*ELEMENT, TYPE=C3D3
9651, 4517, 4471, 4480
*ELEMENT, TYPE=C3D3
9652, 4480, 4471, 4436
*ELEMENT, TYPE=C3D3
9653, 4517, 4480, 4528
*ELEMENT, TYPE=C3D3
9654, 4480, 4436, 4447
*ELEMENT, TYPE=C3D3
9655, 4528, 4480, 4496
*ELEMENT, TYPE=C3D3
9656, 4517, 4528, 4562
*ELEMENT, TYPE=C3D3
9657, 4496, 4480, 4447
*ELEMENT, TYPE=C3D3
9658, 4528, 4496, 4541
*ELEMENT, TYPE=C3D3
9659, 4562, 4528, 4574
*ELEMENT, TYPE=C3D3
9660, 4541, 4496, 4507
*ELEMENT, TYPE=C3D3
9661, 4528, 4541, 4574
*ELEMENT, TYPE=C3D3
9662, 4507, 4496, 4460
*ELEMENT, TYPE=C3D3
9663, 4574, 4541, 4587
*ELEMENT, TYPE=C3D3
9664, 4460, 4496, 4447
*ELEMENT, TYPE=C3D3
9665, 4507, 4460, 4470
*ELEMENT, TYPE=C3D3
9666, 4587, 4541, 4552
*ELEMENT, TYPE=C3D3
9667, 4470, 4460, 4424
*ELEMENT, TYPE=C3D3
9668, 4552, 4541, 4507
*ELEMENT, TYPE=C3D3
9669, 4587, 4552, 4598
*ELEMENT, TYPE=C3D3
9670, 4552, 4507, 4516
*ELEMENT, TYPE=C3D3
9671, 4598, 4552, 4563
*ELEMENT, TYPE=C3D3
9672, 4587, 4598, 4632
*ELEMENT, TYPE=C3D3
9673, 4516, 4507, 4470
*ELEMENT, TYPE=C3D3
9674, 4563, 4552, 4516
*ELEMENT, TYPE=C3D3
9675, 4632, 4598, 4642
*ELEMENT, TYPE=C3D3
9676, 4516, 4470, 4481
*ELEMENT, TYPE=C3D3
9677, 4563, 4516, 4530
*ELEMENT, TYPE=C3D3
9678, 4642, 4598, 4608
*ELEMENT, TYPE=C3D3
9679, 4481, 4470, 4437
*ELEMENT, TYPE=C3D3
9680, 4530, 4516, 4481
*ELEMENT, TYPE=C3D3
9681, 4608, 4598, 4563
*ELEMENT, TYPE=C3D3
9682, 4437, 4470, 4424
*ELEMENT, TYPE=C3D3
9683, 4530, 4481, 4498
*ELEMENT, TYPE=C3D3
9684, 4608, 4563, 4577
*ELEMENT, TYPE=C3D3
9685, 4530, 4498, 4545
*ELEMENT, TYPE=C3D3
9686, 4577, 4563, 4530
*ELEMENT, TYPE=C3D3
9687, 4545, 4498, 4511
*ELEMENT, TYPE=C3D3
9688, 4530, 4545, 4577
*ELEMENT, TYPE=C3D3
9689, 4511, 4498, 4465
*ELEMENT, TYPE=C3D3
9690, 4577, 4545, 4590
*ELEMENT, TYPE=C3D3
9691, 4465, 4498, 4451
*ELEMENT, TYPE=C3D3
9692, 4511, 4465, 4476
*ELEMENT, TYPE=C3D3
9693, 4590, 4545, 4557
*ELEMENT, TYPE=C3D3
9694, 4451, 4498, 4481
*ELEMENT, TYPE=C3D3
9695, 4476, 4465, 4431
*ELEMENT, TYPE=C3D3
9696, 4557, 4545, 4511
*ELEMENT, TYPE=C3D3
9697, 4451, 4481, 4437
*ELEMENT, TYPE=C3D3
9698, 4431, 4465, 4419
*ELEMENT, TYPE=C3D3
9699, 4557, 4511, 4522
*ELEMENT, TYPE=C3D3
9700, 4451, 4437, 4403
*ELEMENT, TYPE=C3D3
9701, 4419, 4465, 4451
*ELEMENT, TYPE=C3D3
9702, 4522, 4511, 4476
*ELEMENT, TYPE=C3D3
9703, 4451, 4403, 4419
*ELEMENT, TYPE=C3D3
9704, 4522, 4476, 4492
*ELEMENT, TYPE=C3D3
9705, 4492, 4476, 4444
*ELEMENT, TYPE=C3D3
9706, 4522, 4492, 4538
*ELEMENT, TYPE=C3D3
9707, 4444, 4476, 4431
*ELEMENT, TYPE=C3D3
9708, 4492, 4444, 4459
*ELEMENT, TYPE=C3D3
9709, 4522, 4538, 4570
*ELEMENT, TYPE=C3D3
9710, 4444, 4431, 4395
*ELEMENT, TYPE=C3D3
9711, 4459, 4444, 4413
*ELEMENT, TYPE=C3D3
9712, 4522, 4570, 4557
*ELEMENT, TYPE=C3D3
9713, 4395, 4431, 4385
*ELEMENT, TYPE=C3D3
9714, 4413, 4444, 4395
*ELEMENT, TYPE=C3D3
9715, 4557, 4570, 4603
*ELEMENT, TYPE=C3D3
9716, 4385, 4431, 4419
*ELEMENT, TYPE=C3D3
9717, 4413, 4395, 4365
*ELEMENT, TYPE=C3D3
9718, 4603, 4570, 4616
*ELEMENT, TYPE=C3D3
9719, 4603, 4616, 4648
*ELEMENT, TYPE=C3D3
9720, 4603, 4648, 4636
*ELEMENT, TYPE=C3D3
9721, 4636, 4648, 4682
*ELEMENT, TYPE=C3D3
9722, 4603, 4636, 4590
*ELEMENT, TYPE=C3D3
9723, 4682, 4648, 4696
*ELEMENT, TYPE=C3D3
9724, 4636, 4682, 4670
*ELEMENT, TYPE=C3D3
9725, 4590, 4636, 4623
*ELEMENT, TYPE=C3D3
9726, 4670, 4682, 4715
*ELEMENT, TYPE=C3D3
9727, 4636, 4670, 4623
*ELEMENT, TYPE=C3D3
9728, 4715, 4682, 4728
*ELEMENT, TYPE=C3D3
9729, 4623, 4670, 4655
*ELEMENT, TYPE=C3D3
9730, 4728, 4682, 4696
*ELEMENT, TYPE=C3D3
9731, 4715, 4728, 4762
*ELEMENT, TYPE=C3D3
9732, 4655, 4670, 4702
*ELEMENT, TYPE=C3D3
9733, 4762, 4728, 4773
*ELEMENT, TYPE=C3D3
9734, 4715, 4762, 4748
*ELEMENT, TYPE=C3D3
9735, 4702, 4670, 4715
*ELEMENT, TYPE=C3D3
9736, 4748, 4762, 4794
*ELEMENT, TYPE=C3D3
9737, 4715, 4748, 4702
*ELEMENT, TYPE=C3D3
9738, 4794, 4762, 4807
*ELEMENT, TYPE=C3D3
9739, 4702, 4748, 4735
*ELEMENT, TYPE=C3D3
9740, 4807, 4762, 4773
*ELEMENT, TYPE=C3D3
9741, 4794, 4807, 4839
*ELEMENT, TYPE=C3D3
9742, 4735, 4748, 4782
*ELEMENT, TYPE=C3D3
9743, 4839, 4807, 4852
*ELEMENT, TYPE=C3D3
9744, 4794, 4839, 4828
*ELEMENT, TYPE=C3D3
9745, 4782, 4748, 4794
*ELEMENT, TYPE=C3D3
9746, 4828, 4839, 4874
*ELEMENT, TYPE=C3D3
9747, 4794, 4828, 4782
*ELEMENT, TYPE=C3D3
9748, 4874, 4839, 4886
*ELEMENT, TYPE=C3D3
9749, 4782, 4828, 4813
*ELEMENT, TYPE=C3D3
9750, 4886, 4839, 4852
*ELEMENT, TYPE=C3D3
9751, 4874, 4886, 4921
*ELEMENT, TYPE=C3D3
9752, 4813, 4828, 4862
*ELEMENT, TYPE=C3D3
9753, 4921, 4886, 4932
*ELEMENT, TYPE=C3D3
9754, 4874, 4921, 4908
*ELEMENT, TYPE=C3D3
9755, 4862, 4828, 4874
*ELEMENT, TYPE=C3D3
9756, 4908, 4921, 4955
*ELEMENT, TYPE=C3D3
9757, 4874, 4908, 4862
*ELEMENT, TYPE=C3D3
9758, 4955, 4921, 4965
*ELEMENT, TYPE=C3D3
9759, 4862, 4908, 4891
*ELEMENT, TYPE=C3D3
9760, 4965, 4921, 4932
*ELEMENT, TYPE=C3D3
9761, 4955, 4965, 5001
*ELEMENT, TYPE=C3D3
9762, 4891, 4908, 4941
*ELEMENT, TYPE=C3D3
9763, 5001, 4965, 5012
*ELEMENT, TYPE=C3D3
9764, 4955, 5001, 4988
*ELEMENT, TYPE=C3D3
9765, 4941, 4908, 4955
*ELEMENT, TYPE=C3D3
9766, 4988, 5001, 5035
*ELEMENT, TYPE=C3D3
9767, 4955, 4988, 4941
*ELEMENT, TYPE=C3D3
9768, 5035, 5001, 5047
*ELEMENT, TYPE=C3D3
9769, 4941, 4988, 4972
*ELEMENT, TYPE=C3D3
9770, 5047, 5001, 5012
*ELEMENT, TYPE=C3D3
9771, 5035, 5047, 5081
*ELEMENT, TYPE=C3D3
9772, 4972, 4988, 5018
*ELEMENT, TYPE=C3D3
9773, 5081, 5047, 5091
*ELEMENT, TYPE=C3D3
9774, 5035, 5081, 5067
*ELEMENT, TYPE=C3D3
9775, 5018, 4988, 5035
*ELEMENT, TYPE=C3D3
9776, 5067, 5081, 5113
*ELEMENT, TYPE=C3D3
9777, 5035, 5067, 5018
*ELEMENT, TYPE=C3D3
9778, 5113, 5081, 5125
*ELEMENT, TYPE=C3D3
9779, 5018, 5067, 5054
*ELEMENT, TYPE=C3D3
9780, 5125, 5081, 5091
*ELEMENT, TYPE=C3D3
9781, 5113, 5125, 5160
*ELEMENT, TYPE=C3D3
9782, 5054, 5067, 5098
*ELEMENT, TYPE=C3D3
9783, 5160, 5125, 5172
*ELEMENT, TYPE=C3D3
9784, 5113, 5160, 5146
*ELEMENT, TYPE=C3D3
9785, 5098, 5067, 5113
*ELEMENT, TYPE=C3D3
9786, 5146, 5160, 5193
*ELEMENT, TYPE=C3D3
9787, 5113, 5146, 5098
*ELEMENT, TYPE=C3D3
9788, 5193, 5160, 5206
*ELEMENT, TYPE=C3D3
9789, 5098, 5146, 5134
*ELEMENT, TYPE=C3D3
9790, 5206, 5160, 5172
*ELEMENT, TYPE=C3D3
9791, 5193, 5206, 5239
*ELEMENT, TYPE=C3D3
9792, 5134, 5146, 5179
*ELEMENT, TYPE=C3D3
9793, 5239, 5206, 5251
*ELEMENT, TYPE=C3D3
9794, 5193, 5239, 5223
*ELEMENT, TYPE=C3D3
9795, 5179, 5146, 5193
*ELEMENT, TYPE=C3D3
9796, 5223, 5239, 5272
*ELEMENT, TYPE=C3D3
9797, 5193, 5223, 5179
*ELEMENT, TYPE=C3D3
9798, 5272, 5239, 5284
*ELEMENT, TYPE=C3D3
9799, 5179, 5223, 5214
*ELEMENT, TYPE=C3D3
9800, 5284, 5239, 5251
*ELEMENT, TYPE=C3D3
9801, 5272, 5284, 5319
*ELEMENT, TYPE=C3D3
9802, 5214, 5223, 5259
*ELEMENT, TYPE=C3D3
9803, 5319, 5284, 5330
*ELEMENT, TYPE=C3D3
9804, 5272, 5319, 5304
*ELEMENT, TYPE=C3D3
9805, 5259, 5223, 5272
*ELEMENT, TYPE=C3D3
9806, 5304, 5319, 5350
*ELEMENT, TYPE=C3D3
9807, 5272, 5304, 5259
*ELEMENT, TYPE=C3D3
9808, 5350, 5319, 5364
*ELEMENT, TYPE=C3D3
9809, 5259, 5304, 5295
*ELEMENT, TYPE=C3D3
9810, 5364, 5319, 5330
*ELEMENT, TYPE=C3D3
9811, 5350, 5364, 5397
*ELEMENT, TYPE=C3D3
9812, 5295, 5304, 5339
*ELEMENT, TYPE=C3D3
9813, 5397, 5364, 5409
*ELEMENT, TYPE=C3D3
9814, 5350, 5397, 5384
*ELEMENT, TYPE=C3D3
9815, 5339, 5304, 5350
*ELEMENT, TYPE=C3D3
9816, 5350, 5384, 5339
*ELEMENT, TYPE=C3D3
9817, 5339, 5384, 5374
*ELEMENT, TYPE=C3D3
9818, 5339, 5374, 5329
*ELEMENT, TYPE=C3D3
9819, 5329, 5374, 5366
*ELEMENT, TYPE=C3D3
9820, 5339, 5329, 5295
*ELEMENT, TYPE=C3D3
9821, 5295, 5329, 5285
*ELEMENT, TYPE=C3D3
9822, 5285, 5329, 5321
*ELEMENT, TYPE=C3D3
9823, 5295, 5285, 5250
*ELEMENT, TYPE=C3D3
9824, 5321, 5329, 5366
*ELEMENT, TYPE=C3D3
9825, 5285, 5321, 5275
*ELEMENT, TYPE=C3D3
9826, 5250, 5285, 5240
*ELEMENT, TYPE=C3D3
9827, 5321, 5366, 5354
*ELEMENT, TYPE=C3D3
9828, 5275, 5321, 5307
*ELEMENT, TYPE=C3D3
9829, 5240, 5285, 5275
*ELEMENT, TYPE=C3D3
9830, 5307, 5321, 5354
*ELEMENT, TYPE=C3D3
9831, 5275, 5307, 5262
*ELEMENT, TYPE=C3D3
9832, 5307, 5354, 5344
*ELEMENT, TYPE=C3D3
9833, 5262, 5307, 5299
*ELEMENT, TYPE=C3D3
9834, 5307, 5344, 5299
*ELEMENT, TYPE=C3D3
9835, 5299, 5344, 5336
*ELEMENT, TYPE=C3D3
9836, 5299, 5336, 5290
*ELEMENT, TYPE=C3D3
9837, 5290, 5336, 5327
*ELEMENT, TYPE=C3D3
9838, 5299, 5290, 5255
*ELEMENT, TYPE=C3D3
9839, 5255, 5290, 5247
*ELEMENT, TYPE=C3D3
9840, 5299, 5255, 5262
*ELEMENT, TYPE=C3D3
9841, 5247, 5290, 5281
*ELEMENT, TYPE=C3D3
9842, 5262, 5255, 5219
*ELEMENT, TYPE=C3D3
9843, 5281, 5290, 5327
*ELEMENT, TYPE=C3D3
9844, 5219, 5255, 5210
*ELEMENT, TYPE=C3D3
9845, 5262, 5219, 5228
*ELEMENT, TYPE=C3D3
9846, 5210, 5255, 5247
*ELEMENT, TYPE=C3D3
9847, 5219, 5210, 5173
*ELEMENT, TYPE=C3D3
9848, 5228, 5219, 5181
*ELEMENT, TYPE=C3D3
9849, 5210, 5247, 5201
*ELEMENT, TYPE=C3D3
9850, 5173, 5210, 5165
*ELEMENT, TYPE=C3D3
9851, 5181, 5219, 5173
*ELEMENT, TYPE=C3D3
9852, 5201, 5247, 5237
*ELEMENT, TYPE=C3D3
9853, 5165, 5210, 5201
*ELEMENT, TYPE=C3D3
9854, 5237, 5247, 5281
*ELEMENT, TYPE=C3D3
9855, 5201, 5237, 5191
*ELEMENT, TYPE=C3D3
9856, 5237, 5281, 5271
*ELEMENT, TYPE=C3D3
9857, 5191, 5237, 5226
*ELEMENT, TYPE=C3D3
9858, 5271, 5281, 5318
*ELEMENT, TYPE=C3D3
9859, 5237, 5271, 5226
*ELEMENT, TYPE=C3D3
9860, 5318, 5281, 5327
*ELEMENT, TYPE=C3D3
9861, 5226, 5271, 5264
*ELEMENT, TYPE=C3D3
9862, 5264, 5271, 5305
*ELEMENT, TYPE=C3D3
9863, 5305, 5271, 5318
*ELEMENT, TYPE=C3D3
9864, 5264, 5305, 5301
*ELEMENT, TYPE=C3D3
9865, 5264, 5301, 5257
*ELEMENT, TYPE=C3D3
9866, 5257, 5301, 5292
*ELEMENT, TYPE=C3D3
9867, 5257, 5292, 5249
*ELEMENT, TYPE=C3D3
9868, 5249, 5292, 5286
*ELEMENT, TYPE=C3D3
9869, 5249, 5286, 5242
*ELEMENT, TYPE=C3D3
9870, 4684, 4640, 4650
*ELEMENT, TYPE=C3D3
9871, 4650, 4640, 4604
*ELEMENT, TYPE=C3D3
9872, 4684, 4650, 4697
*ELEMENT, TYPE=C3D3
9873, 4650, 4604, 4615
*ELEMENT, TYPE=C3D3
9874, 4697, 4650, 4658
*ELEMENT, TYPE=C3D3
9875, 4684, 4697, 4730
*ELEMENT, TYPE=C3D3
9876, 4615, 4604, 4569
*ELEMENT, TYPE=C3D3
9877, 4658, 4650, 4615
*ELEMENT, TYPE=C3D3
9878, 4730, 4697, 4742
*ELEMENT, TYPE=C3D3
9879, 4569, 4604, 4559
*ELEMENT, TYPE=C3D3
9880, 4742, 4697, 4704
*ELEMENT, TYPE=C3D3
9881, 4730, 4742, 4776
*ELEMENT, TYPE=C3D3
9882, 4569, 4559, 4525
*ELEMENT, TYPE=C3D3
9883, 4704, 4697, 4658
*ELEMENT, TYPE=C3D3
9884, 4776, 4742, 4788
*ELEMENT, TYPE=C3D3
9885, 4704, 4658, 4671
*ELEMENT, TYPE=C3D3
9886, 4788, 4742, 4750
*ELEMENT, TYPE=C3D3
9887, 4671, 4658, 4625
*ELEMENT, TYPE=C3D3
9888, 4704, 4671, 4714
*ELEMENT, TYPE=C3D3
9889, 4750, 4742, 4704
*ELEMENT, TYPE=C3D3
9890, 4625, 4658, 4615
*ELEMENT, TYPE=C3D3
9891, 4714, 4671, 4680
*ELEMENT, TYPE=C3D3
9892, 4750, 4704, 4714
*ELEMENT, TYPE=C3D3
9893, 4625, 4615, 4579
*ELEMENT, TYPE=C3D3
9894, 4680, 4671, 4634
*ELEMENT, TYPE=C3D3
9895, 4750, 4714, 4759
*ELEMENT, TYPE=C3D3
9896, 4579, 4615, 4569
*ELEMENT, TYPE=C3D3
9897, 4634, 4671, 4625
*ELEMENT, TYPE=C3D3
9898, 4759, 4714, 4725
*ELEMENT, TYPE=C3D3
9899, 4579, 4569, 4534
*ELEMENT, TYPE=C3D3
9900, 4634, 4625, 4589
*ELEMENT, TYPE=C3D3
9901, 4725, 4714, 4680
*ELEMENT, TYPE=C3D3
9902, 4534, 4569, 4525
*ELEMENT, TYPE=C3D3
9903, 4589, 4625, 4579
*ELEMENT, TYPE=C3D3
9904, 4534, 4525, 4490
*ELEMENT, TYPE=C3D3
9905, 4589, 4579, 4546
*ELEMENT, TYPE=C3D3
9906, 4534, 4490, 4499
*ELEMENT, TYPE=C3D3
9907, 4546, 4579, 4534
*ELEMENT, TYPE=C3D3
9908, 4589, 4546, 4555
*ELEMENT, TYPE=C3D3
9909, 4534, 4499, 4546
*ELEMENT, TYPE=C3D3
9910, 4555, 4546, 4509
*ELEMENT, TYPE=C3D3
9911, 4546, 4499, 4509
*ELEMENT, TYPE=C3D3
9912, 4555, 4509, 4517
*ELEMENT, TYPE=C3D3
9913, 4555, 4517, 4562
*ELEMENT, TYPE=C3D3
9914, 4587, 4632, 4621
*ELEMENT, TYPE=C3D3
9915, 4621, 4632, 4667
*ELEMENT, TYPE=C3D3
9916, 4587, 4621, 4574
*ELEMENT, TYPE=C3D3
9917, 4667, 4632, 4678
*ELEMENT, TYPE=C3D3
9918, 4574, 4621, 4607
*ELEMENT, TYPE=C3D3
9919, 4678, 4632, 4642
*ELEMENT, TYPE=C3D3
9920, 4667, 4678, 4710
*ELEMENT, TYPE=C3D3
9921, 4607, 4621, 4654
*ELEMENT, TYPE=C3D3
9922, 4678, 4642, 4688
*ELEMENT, TYPE=C3D3
9923, 4710, 4678, 4722
*ELEMENT, TYPE=C3D3
9924, 4654, 4621, 4667
*ELEMENT, TYPE=C3D3
9925, 4688, 4642, 4655
*ELEMENT, TYPE=C3D3
9926, 4722, 4678, 4688
*ELEMENT, TYPE=C3D3
9927, 4655, 4642, 4608
*ELEMENT, TYPE=C3D3
9928, 4688, 4655, 4702
*ELEMENT, TYPE=C3D3
9929, 4722, 4688, 4735
*ELEMENT, TYPE=C3D3
9930, 4655, 4608, 4623
*ELEMENT, TYPE=C3D3
9931, 4688, 4702, 4735
*ELEMENT, TYPE=C3D3
9932, 4623, 4608, 4577
*ELEMENT, TYPE=C3D3
9933, 4623, 4577, 4590
*ELEMENT, TYPE=C3D3
9934, 4759, 4725, 4770
*ELEMENT, TYPE=C3D3
9935, 4770, 4725, 4734
*ELEMENT, TYPE=C3D3
9936, 4759, 4770, 4804
*ELEMENT, TYPE=C3D3
9937, 4734, 4725, 4690
*ELEMENT, TYPE=C3D3
9938, 4804, 4770, 4814
*ELEMENT, TYPE=C3D3
9939, 4759, 4804, 4795
*ELEMENT, TYPE=C3D3
9940, 4690, 4725, 4680
*ELEMENT, TYPE=C3D3
9941, 4814, 4770, 4781
*ELEMENT, TYPE=C3D3
9942, 4795, 4804, 4840
*ELEMENT, TYPE=C3D3
9943, 4690, 4680, 4645
*ELEMENT, TYPE=C3D3
9944, 4781, 4770, 4734
*ELEMENT, TYPE=C3D3
9945, 4840, 4804, 4849
*ELEMENT, TYPE=C3D3
9946, 4645, 4680, 4634
*ELEMENT, TYPE=C3D3
9947, 4781, 4734, 4747
*ELEMENT, TYPE=C3D3
9948, 4849, 4804, 4814
*ELEMENT, TYPE=C3D3
9949, 4645, 4634, 4600
*ELEMENT, TYPE=C3D3
9950, 4747, 4734, 4700
*ELEMENT, TYPE=C3D3
9951, 4849, 4814, 4861
*ELEMENT, TYPE=C3D3
9952, 4600, 4634, 4589
*ELEMENT, TYPE=C3D3
9953, 4700, 4734, 4690
*ELEMENT, TYPE=C3D3
9954, 4861, 4814, 4826
*ELEMENT, TYPE=C3D3
9955, 4600, 4589, 4555
*ELEMENT, TYPE=C3D3
9956, 4826, 4814, 4781
*ELEMENT, TYPE=C3D3
9957, 4861, 4826, 4873
*ELEMENT, TYPE=C3D3
9958, 4826, 4781, 4792
*ELEMENT, TYPE=C3D3
9959, 4873, 4826, 4838
*ELEMENT, TYPE=C3D3
9960, 4861, 4873, 4907
*ELEMENT, TYPE=C3D3
9961, 4792, 4781, 4747
*ELEMENT, TYPE=C3D3
9962, 4838, 4826, 4792
*ELEMENT, TYPE=C3D3
9963, 4907, 4873, 4918
*ELEMENT, TYPE=C3D3
9964, 4792, 4747, 4756
*ELEMENT, TYPE=C3D3
9965, 4838, 4792, 4802
*ELEMENT, TYPE=C3D3
9966, 4918, 4873, 4882
*ELEMENT, TYPE=C3D3
9967, 4756, 4747, 4710
*ELEMENT, TYPE=C3D3
9968, 4802, 4792, 4756
*ELEMENT, TYPE=C3D3
9969, 4882, 4873, 4838
*ELEMENT, TYPE=C3D3
9970, 4710, 4747, 4700
*ELEMENT, TYPE=C3D3
9971, 4802, 4756, 4766
*ELEMENT, TYPE=C3D3
9972, 4882, 4838, 4847
*ELEMENT, TYPE=C3D3
9973, 4710, 4700, 4667
*ELEMENT, TYPE=C3D3
9974, 4766, 4756, 4722
*ELEMENT, TYPE=C3D3
9975, 4847, 4838, 4802
*ELEMENT, TYPE=C3D3
9976, 4667, 4700, 4654
*ELEMENT, TYPE=C3D3
9977, 4722, 4756, 4710
*ELEMENT, TYPE=C3D3
9978, 4654, 4700, 4690
*ELEMENT, TYPE=C3D3
9979, 4654, 4690, 4645
*ELEMENT, TYPE=C3D3
9980, 4654, 4645, 4607
*ELEMENT, TYPE=C3D3
9981, 4607, 4645, 4600
*ELEMENT, TYPE=C3D3
9982, 4607, 4600, 4562
*ELEMENT, TYPE=C3D3
9983, 4562, 4600, 4555
*ELEMENT, TYPE=C3D3
9984, 4607, 4562, 4574
*ELEMENT, TYPE=C3D3
9985, 4840, 4849, 4884
*ELEMENT, TYPE=C3D3
9986, 4884, 4849, 4895
*ELEMENT, TYPE=C3D3
9987, 4840, 4884, 4877
*ELEMENT, TYPE=C3D3
9988, 4895, 4849, 4861
*ELEMENT, TYPE=C3D3
9989, 4877, 4884, 4922
*ELEMENT, TYPE=C3D3
9990, 4895, 4861, 4907
*ELEMENT, TYPE=C3D3
9991, 4922, 4884, 4930
*ELEMENT, TYPE=C3D3
9992, 4895, 4907, 4942
*ELEMENT, TYPE=C3D3
9993, 4930, 4884, 4895
*ELEMENT, TYPE=C3D3
9994, 4942, 4907, 4953
*ELEMENT, TYPE=C3D3
9995, 4895, 4942, 4930
*ELEMENT, TYPE=C3D3
9996, 4953, 4907, 4918
*ELEMENT, TYPE=C3D3
9997, 4942, 4953, 4989
*ELEMENT, TYPE=C3D3
9998, 4930, 4942, 4974
*ELEMENT, TYPE=C3D3
9999, 4989, 4953, 5000
*ELEMENT, TYPE=C3D3
10000, 4942, 4989, 4974
*ELEMENT, TYPE=C3D3
10001, 5000, 4953, 4963
*ELEMENT, TYPE=C3D3
10002, 4974, 4989, 5023
*ELEMENT, TYPE=C3D3
10003, 4963, 4953, 4918
*ELEMENT, TYPE=C3D3
10004, 5000, 4963, 5009
*ELEMENT, TYPE=C3D3
10005, 5023, 4989, 5034
*ELEMENT, TYPE=C3D3
10006, 5009, 4963, 4972
*ELEMENT, TYPE=C3D3
10007, 5000, 5009, 5043
*ELEMENT, TYPE=C3D3
10008, 5034, 4989, 5000
*ELEMENT, TYPE=C3D3
10009, 4972, 4963, 4928
*ELEMENT, TYPE=C3D3
10010, 5043, 5009, 5054
*ELEMENT, TYPE=C3D3
10011, 5034, 5000, 5043
*ELEMENT, TYPE=C3D3
10012, 4928, 4963, 4918
*ELEMENT, TYPE=C3D3
10013, 5054, 5009, 5018
*ELEMENT, TYPE=C3D3
10014, 4928, 4918, 4882
*ELEMENT, TYPE=C3D3
10015, 5018, 5009, 4972
*ELEMENT, TYPE=C3D3
10016, 4928, 4882, 4891
*ELEMENT, TYPE=C3D3
10017, 4891, 4882, 4847
*ELEMENT, TYPE=C3D3
10018, 4891, 4847, 4862
*ELEMENT, TYPE=C3D3
10019, 4862, 4847, 4813
*ELEMENT, TYPE=C3D3
10020, 4813, 4847, 4802
*ELEMENT, TYPE=C3D3
10021, 4813, 4802, 4766
*ELEMENT, TYPE=C3D3
10022, 4813, 4766, 4782
*ELEMENT, TYPE=C3D3
10023, 4782, 4766, 4735
*ELEMENT, TYPE=C3D3
10024, 4735, 4766, 4722
*ELEMENT, TYPE=C3D3
10025, 4840, 4877, 4831
*ELEMENT, TYPE=C3D3
10026, 4831, 4877, 4868
*ELEMENT, TYPE=C3D3
10027, 4840, 4831, 4795
*ELEMENT, TYPE=C3D3
10028, 4868, 4877, 4914
*ELEMENT, TYPE=C3D3
10029, 4795, 4831, 4788
*ELEMENT, TYPE=C3D3
10030, 4914, 4877, 4922
*ELEMENT, TYPE=C3D3
10031, 4868, 4914, 4905
*ELEMENT, TYPE=C3D3
10032, 4788, 4831, 4823
*ELEMENT, TYPE=C3D3
10033, 4914, 4922, 4958
*ELEMENT, TYPE=C3D3
10034, 4905, 4914, 4950
*ELEMENT, TYPE=C3D3
10035, 4823, 4831, 4868
*ELEMENT, TYPE=C3D3
10036, 4958, 4922, 4967
*ELEMENT, TYPE=C3D3
10037, 4950, 4914, 4958
*ELEMENT, TYPE=C3D3
10038, 4823, 4868, 4857
*ELEMENT, TYPE=C3D3
10039, 4967, 4922, 4930
*ELEMENT, TYPE=C3D3
10040, 4857, 4868, 4905
*ELEMENT, TYPE=C3D3
10041, 4823, 4857, 4809
*ELEMENT, TYPE=C3D3
10042, 4967, 4930, 4974
*ELEMENT, TYPE=C3D3
10043, 4809, 4857, 4848
*ELEMENT, TYPE=C3D3
10044, 4823, 4809, 4776
*ELEMENT, TYPE=C3D3
10045, 4848, 4857, 4890
*ELEMENT, TYPE=C3D3
10046, 4809, 4848, 4803
*ELEMENT, TYPE=C3D3
10047, 4776, 4809, 4765
*ELEMENT, TYPE=C3D3
10048, 4890, 4857, 4905
*ELEMENT, TYPE=C3D3
10049, 4803, 4848, 4842
*ELEMENT, TYPE=C3D3
10050, 4765, 4809, 4803
*ELEMENT, TYPE=C3D3
10051, 4890, 4905, 4936
*ELEMENT, TYPE=C3D3
10052, 4842, 4848, 4885
*ELEMENT, TYPE=C3D3
10053, 4765, 4803, 4760
*ELEMENT, TYPE=C3D3
10054, 4936, 4905, 4950
*ELEMENT, TYPE=C3D3
10055, 4885, 4848, 4890
*ELEMENT, TYPE=C3D3
10056, 4760, 4803, 4796
*ELEMENT, TYPE=C3D3
10057, 4936, 4950, 4984
*ELEMENT, TYPE=C3D3
10058, 4885, 4890, 4929
*ELEMENT, TYPE=C3D3
10059, 4796, 4803, 4842
*ELEMENT, TYPE=C3D3
10060, 4984, 4950, 4996
*ELEMENT, TYPE=C3D3
10061, 4929, 4890, 4936
*ELEMENT, TYPE=C3D3
10062, 4796, 4842, 4835
*ELEMENT, TYPE=C3D3
10063, 4996, 4950, 4958
*ELEMENT, TYPE=C3D3
10064, 4929, 4936, 4973
*ELEMENT, TYPE=C3D3
10065, 4835, 4842, 4878
*ELEMENT, TYPE=C3D3
10066, 4996, 4958, 5004
*ELEMENT, TYPE=C3D3
10067, 4973, 4936, 4984
*ELEMENT, TYPE=C3D3
10068, 4878, 4842, 4885
*ELEMENT, TYPE=C3D3
10069, 5004, 4958, 4967
*ELEMENT, TYPE=C3D3
10070, 4878, 4885, 4923
*ELEMENT, TYPE=C3D3
10071, 5004, 4967, 5011
*ELEMENT, TYPE=C3D3
10072, 4923, 4885, 4929
*ELEMENT, TYPE=C3D3
10073, 4878, 4923, 4917
*ELEMENT, TYPE=C3D3
10074, 5011, 4967, 4974
*ELEMENT, TYPE=C3D3
10075, 4923, 4929, 4968
*ELEMENT, TYPE=C3D3
10076, 4917, 4923, 4961
*ELEMENT, TYPE=C3D3
10077, 5011, 4974, 5023
*ELEMENT, TYPE=C3D3
10078, 4968, 4929, 4973
*ELEMENT, TYPE=C3D3
10079, 4961, 4923, 4968
*ELEMENT, TYPE=C3D3
10080, 4968, 4973, 5013
*ELEMENT, TYPE=C3D3
10081, 4961, 4968, 5005
*ELEMENT, TYPE=C3D3
10082, 5013, 4973, 5016
*ELEMENT, TYPE=C3D3
10083, 5005, 4968, 5013
*ELEMENT, TYPE=C3D3
10084, 5016, 4973, 4984
*ELEMENT, TYPE=C3D3
10085, 5013, 5016, 5055
*ELEMENT, TYPE=C3D3
10086, 5016, 4984, 5031
*ELEMENT, TYPE=C3D3
10087, 5055, 5016, 5064
*ELEMENT, TYPE=C3D3
10088, 5031, 4984, 4996
*ELEMENT, TYPE=C3D3
10089, 5016, 5031, 5064
*ELEMENT, TYPE=C3D3
10090, 5064, 5031, 5076
*ELEMENT, TYPE=C3D3
10091, 5076, 5031, 5039
*ELEMENT, TYPE=C3D3
10092, 5064, 5076, 5110
*ELEMENT, TYPE=C3D3
10093, 5039, 5031, 4996
*ELEMENT, TYPE=C3D3
10094, 5076, 5039, 5085
*ELEMENT, TYPE=C3D3
10095, 5110, 5076, 5121
*ELEMENT, TYPE=C3D3
10096, 5085, 5039, 5048
*ELEMENT, TYPE=C3D3
10097, 5076, 5085, 5121
*ELEMENT, TYPE=C3D3
10098, 5048, 5039, 5004
*ELEMENT, TYPE=C3D3
10099, 5121, 5085, 5129
*ELEMENT, TYPE=C3D3
10100, 5004, 5039, 4996
*ELEMENT, TYPE=C3D3
10101, 5048, 5004, 5011
*ELEMENT, TYPE=C3D3
10102, 5129, 5085, 5093
*ELEMENT, TYPE=C3D3
10103, 5048, 5011, 5056
*ELEMENT, TYPE=C3D3
10104, 5093, 5085, 5048
*ELEMENT, TYPE=C3D3
10105, 5129, 5093, 5137
*ELEMENT, TYPE=C3D3
10106, 5056, 5011, 5023
*ELEMENT, TYPE=C3D3
10107, 5093, 5048, 5056
*ELEMENT, TYPE=C3D3
10108, 5137, 5093, 5101
*ELEMENT, TYPE=C3D3
10109, 5056, 5023, 5069
*ELEMENT, TYPE=C3D3
10110, 5093, 5056, 5101
*ELEMENT, TYPE=C3D3
10111, 5069, 5023, 5034
*ELEMENT, TYPE=C3D3
10112, 5101, 5056, 5069
*ELEMENT, TYPE=C3D3
10113, 5069, 5034, 5078
*ELEMENT, TYPE=C3D3
10114, 5101, 5069, 5114
*ELEMENT, TYPE=C3D3
10115, 5078, 5034, 5043
*ELEMENT, TYPE=C3D3
10116, 5069, 5078, 5114
*ELEMENT, TYPE=C3D3
10117, 5078, 5043, 5089
*ELEMENT, TYPE=C3D3
10118, 5114, 5078, 5124
*ELEMENT, TYPE=C3D3
10119, 5089, 5043, 5054
*ELEMENT, TYPE=C3D3
10120, 5078, 5089, 5124
*ELEMENT, TYPE=C3D3
10121, 5089, 5054, 5098
*ELEMENT, TYPE=C3D3
10122, 5124, 5089, 5134
*ELEMENT, TYPE=C3D3
10123, 5089, 5098, 5134
*ELEMENT, TYPE=C3D3
10124, 5124, 5134, 5170
*ELEMENT, TYPE=C3D3
10125, 5170, 5134, 5179
*ELEMENT, TYPE=C3D3
10126, 5124, 5170, 5159
*ELEMENT, TYPE=C3D3
10127, 5170, 5179, 5214
*ELEMENT, TYPE=C3D3
10128, 5159, 5170, 5204
*ELEMENT, TYPE=C3D3
10129, 5124, 5159, 5114
*ELEMENT, TYPE=C3D3
10130, 5170, 5214, 5204
*ELEMENT, TYPE=C3D3
10131, 5114, 5159, 5149
*ELEMENT, TYPE=C3D3
10132, 5204, 5214, 5250
*ELEMENT, TYPE=C3D3
10133, 5149, 5159, 5194
*ELEMENT, TYPE=C3D3
10134, 5114, 5149, 5101
*ELEMENT, TYPE=C3D3
10135, 5250, 5214, 5259
*ELEMENT, TYPE=C3D3
10136, 5194, 5159, 5204
*ELEMENT, TYPE=C3D3
10137, 5101, 5149, 5137
*ELEMENT, TYPE=C3D3
10138, 5250, 5259, 5295
*ELEMENT, TYPE=C3D3
10139, 5194, 5204, 5240
*ELEMENT, TYPE=C3D3
10140, 5137, 5149, 5181
*ELEMENT, TYPE=C3D3
10141, 5240, 5204, 5250
*ELEMENT, TYPE=C3D3
10142, 5194, 5240, 5228
*ELEMENT, TYPE=C3D3
10143, 5181, 5149, 5194
*ELEMENT, TYPE=C3D3
10144, 5228, 5240, 5275
*ELEMENT, TYPE=C3D3
10145, 5194, 5228, 5181
*ELEMENT, TYPE=C3D3
10146, 5228, 5275, 5262
*ELEMENT, TYPE=C3D3
10147, 4795, 4788, 4750
*ELEMENT, TYPE=C3D3
10148, 4795, 4750, 4759
*ELEMENT, TYPE=C3D3
10149, 4917, 4961, 4954
*ELEMENT, TYPE=C3D3
10150, 4954, 4961, 4998
*ELEMENT, TYPE=C3D3
10151, 4917, 4954, 4910
*ELEMENT, TYPE=C3D3
10152, 4998, 4961, 5005
*ELEMENT, TYPE=C3D3
10153, 4954, 4998, 4992
*ELEMENT, TYPE=C3D3
10154, 4910, 4954, 4946
*ELEMENT, TYPE=C3D3
10155, 4917, 4910, 4871
*ELEMENT, TYPE=C3D3
10156, 4992, 4998, 5036
*ELEMENT, TYPE=C3D3
10157, 4910, 4946, 4901
*ELEMENT, TYPE=C3D3
10158, 4871, 4910, 4865
*ELEMENT, TYPE=C3D3
10159, 5036, 4998, 5042
*ELEMENT, TYPE=C3D3
10160, 4901, 4946, 4937
*ELEMENT, TYPE=C3D3
10161, 4865, 4910, 4901
*ELEMENT, TYPE=C3D3
10162, 5042, 4998, 5005
*ELEMENT, TYPE=C3D3
10163, 4937, 4946, 4983
*ELEMENT, TYPE=C3D3
10164, 5042, 5005, 5050
*ELEMENT, TYPE=C3D3
10165, 4983, 4946, 4992
*ELEMENT, TYPE=C3D3
10166, 4937, 4983, 4976
*ELEMENT, TYPE=C3D3
10167, 5050, 5005, 5013
*ELEMENT, TYPE=C3D3
10168, 4992, 4946, 4954
*ELEMENT, TYPE=C3D3
10169, 4976, 4983, 5021
*ELEMENT, TYPE=C3D3
10170, 5050, 5013, 5055
*ELEMENT, TYPE=C3D3
10171, 5021, 4983, 5029
*ELEMENT, TYPE=C3D3
10172, 5050, 5055, 5095
*ELEMENT, TYPE=C3D3
10173, 5029, 4983, 4992
*ELEMENT, TYPE=C3D3
10174, 5021, 5029, 5065
*ELEMENT, TYPE=C3D3
10175, 5095, 5055, 5100
*ELEMENT, TYPE=C3D3
10176, 5029, 4992, 5036
*ELEMENT, TYPE=C3D3
10177, 5065, 5029, 5072
*ELEMENT, TYPE=C3D3
10178, 5100, 5055, 5064
*ELEMENT, TYPE=C3D3
10179, 5029, 5036, 5072
*ELEMENT, TYPE=C3D3
10180, 5100, 5064, 5110
*ELEMENT, TYPE=C3D3
10181, 5072, 5036, 5079
*ELEMENT, TYPE=C3D3
10182, 5100, 5110, 5145
*ELEMENT, TYPE=C3D3
10183, 5079, 5036, 5042
*ELEMENT, TYPE=C3D3
10184, 5072, 5079, 5116
*ELEMENT, TYPE=C3D3
10185, 5145, 5110, 5157
*ELEMENT, TYPE=C3D3
10186, 5116, 5079, 5123
*ELEMENT, TYPE=C3D3
10187, 5072, 5116, 5109
*ELEMENT, TYPE=C3D3
10188, 5157, 5110, 5121
*ELEMENT, TYPE=C3D3
10189, 5123, 5079, 5086
*ELEMENT, TYPE=C3D3
10190, 5109, 5116, 5154
*ELEMENT, TYPE=C3D3
10191, 5157, 5121, 5165
*ELEMENT, TYPE=C3D3
10192, 5086, 5079, 5042
*ELEMENT, TYPE=C3D3
10193, 5154, 5116, 5161
*ELEMENT, TYPE=C3D3
10194, 5165, 5121, 5129
*ELEMENT, TYPE=C3D3
10195, 5086, 5042, 5050
*ELEMENT, TYPE=C3D3
10196, 5161, 5116, 5123
*ELEMENT, TYPE=C3D3
10197, 5165, 5129, 5173
*ELEMENT, TYPE=C3D3
10198, 5086, 5050, 5095
*ELEMENT, TYPE=C3D3
10199, 5161, 5123, 5168
*ELEMENT, TYPE=C3D3
10200, 5173, 5129, 5137
*ELEMENT, TYPE=C3D3
10201, 5168, 5123, 5130
*ELEMENT, TYPE=C3D3
10202, 5161, 5168, 5205
*ELEMENT, TYPE=C3D3
10203, 5173, 5137, 5181
*ELEMENT, TYPE=C3D3
10204, 5130, 5123, 5086
*ELEMENT, TYPE=C3D3
10205, 5205, 5168, 5212
*ELEMENT, TYPE=C3D3
10206, 5130, 5086, 5095
*ELEMENT, TYPE=C3D3
10207, 5212, 5168, 5176
*ELEMENT, TYPE=C3D3
10208, 5205, 5212, 5249
*ELEMENT, TYPE=C3D3
10209, 5130, 5095, 5138
*ELEMENT, TYPE=C3D3
10210, 5176, 5168, 5130
*ELEMENT, TYPE=C3D3
10211, 5249, 5212, 5257
*ELEMENT, TYPE=C3D3
10212, 5138, 5095, 5100
*ELEMENT, TYPE=C3D3
10213, 5257, 5212, 5220
*ELEMENT, TYPE=C3D3
10214, 5138, 5100, 5145
*ELEMENT, TYPE=C3D3
10215, 5220, 5212, 5176
*ELEMENT, TYPE=C3D3
10216, 5138, 5145, 5180
*ELEMENT, TYPE=C3D3
10217, 5220, 5176, 5180
*ELEMENT, TYPE=C3D3
10218, 5180, 5145, 5191
*ELEMENT, TYPE=C3D3
10219, 5138, 5180, 5176
*ELEMENT, TYPE=C3D3
10220, 5191, 5145, 5157
*ELEMENT, TYPE=C3D3
10221, 5138, 5176, 5130
*ELEMENT, TYPE=C3D3
10222, 5191, 5157, 5201
*ELEMENT, TYPE=C3D3
10223, 5201, 5157, 5165
*ELEMENT, TYPE=C3D3
10224, 4871, 4865, 4827
*ELEMENT, TYPE=C3D3
10225, 4871, 4827, 4835
*ELEMENT, TYPE=C3D3
10226, 4835, 4827, 4791
*ELEMENT, TYPE=C3D3
10227, 4835, 4791, 4796
*ELEMENT, TYPE=C3D3
10228, 4796, 4791, 4751
*ELEMENT, TYPE=C3D3
10229, 4751, 4791, 4745
*ELEMENT, TYPE=C3D3
10230, 4796, 4751, 4760
*ELEMENT, TYPE=C3D3
10231, 4751, 4745, 4707
*ELEMENT, TYPE=C3D3
10232, 4707, 4745, 4701
*ELEMENT, TYPE=C3D3
10233, 4701, 4745, 4738
*ELEMENT, TYPE=C3D3
10234, 4707, 4701, 4663
*ELEMENT, TYPE=C3D3
10235, 4701, 4738, 4694
*ELEMENT, TYPE=C3D3
10236, 4663, 4701, 4656
*ELEMENT, TYPE=C3D3
10237, 4694, 4738, 4729
*ELEMENT, TYPE=C3D3
10238, 4701, 4694, 4656
*ELEMENT, TYPE=C3D3
10239, 4729, 4738, 4775
*ELEMENT, TYPE=C3D3
10240, 4656, 4694, 4649
*ELEMENT, TYPE=C3D3
10241, 4729, 4775, 4769
*ELEMENT, TYPE=C3D3
10242, 4649, 4694, 4686
*ELEMENT, TYPE=C3D3
10243, 4729, 4769, 4727
*ELEMENT, TYPE=C3D3
10244, 4686, 4694, 4729
*ELEMENT, TYPE=C3D3
10245, 4729, 4727, 4686
*ELEMENT, TYPE=C3D3
10246, 4686, 4727, 4683
*ELEMENT, TYPE=C3D3
10247, 5161, 5205, 5198
*ELEMENT, TYPE=C3D3
10248, 5198, 5205, 5242
*ELEMENT, TYPE=C3D3
10249, 5161, 5198, 5154
*ELEMENT, TYPE=C3D3
10250, 5242, 5205, 5249
*ELEMENT, TYPE=C3D3
10251, 5154, 5198, 5190
*ELEMENT, TYPE=C3D3
10252, 5190, 5198, 5235
*ELEMENT, TYPE=C3D3
10253, 5154, 5190, 5147
*ELEMENT, TYPE=C3D3
10254, 5235, 5198, 5242
*ELEMENT, TYPE=C3D3
10255, 5147, 5190, 5183
*ELEMENT, TYPE=C3D3
10256, 5147, 5183, 5140
*ELEMENT, TYPE=C3D3
10257, 5147, 5140, 5102
*ELEMENT, TYPE=C3D3
10258, 5147, 5102, 5109
*ELEMENT, TYPE=C3D3
10259, 5109, 5102, 5065
*ELEMENT, TYPE=C3D3
10260, 5147, 5109, 5154
*ELEMENT, TYPE=C3D3
10261, 5109, 5065, 5072
*ELEMENT, TYPE=C3D3
10262, 5220, 5180, 5226
*ELEMENT, TYPE=C3D3
10263, 5226, 5180, 5191
*ELEMENT, TYPE=C3D3
10264, 5220, 5226, 5264
*ELEMENT, TYPE=C3D3
10265, 5220, 5264, 5257
*ELEMENT, TYPE=C3D3
10266, 4820, 4827, 4865
*ELEMENT, TYPE=C3D3
10267, 4820, 4865, 4855
*ELEMENT, TYPE=C3D3
10268, 4855, 4865, 4901
*ELEMENT, TYPE=C3D3
10269, 4855, 4901, 4894
*ELEMENT, TYPE=C3D3
10270, 4894, 4901, 4937
*ELEMENT, TYPE=C3D3
10271, 4894, 4937, 4933
*ELEMENT, TYPE=C3D3
10272, 4933, 4937, 4976
*ELEMENT, TYPE=C3D3
10273, 4894, 4933, 4888
*ELEMENT, TYPE=C3D3
10274, 4583, 4548, 4591
*ELEMENT, TYPE=C3D3
10275, 4583, 4591, 4627
*ELEMENT, TYPE=C3D3
10276, 4627, 4591, 4635
*ELEMENT, TYPE=C3D3
10277, 4760, 4723, 4765
*ELEMENT, TYPE=C3D3
10278, 4765, 4723, 4730
*ELEMENT, TYPE=C3D3
10279, 4730, 4723, 4684
*ELEMENT, TYPE=C3D3
10280, 4765, 4730, 4776
*ELEMENT, TYPE=C3D3
10281, 4788, 4823, 4776
*ELEMENT, TYPE=C3D3
10282, 4928, 4891, 4941
*ELEMENT, TYPE=C3D3
10283, 4928, 4941, 4972
*ELEMENT, TYPE=C3D3
10284, 4557, 4603, 4590
*ELEMENT, TYPE=C3D3
10285, 1448, 1419, 1476
*ELEMENT, TYPE=C3D3
10286, 4560, 4606, 4566
*ELEMENT, TYPE=C3D3
10287, 4566, 4606, 4613
*ELEMENT, TYPE=C3D3
10288, 4737, 4698, 4741
*ELEMENT, TYPE=C3D3
10289, 4741, 4698, 4699
*ELEMENT, TYPE=C3D3
10290, 4737, 4741, 4778
*ELEMENT, TYPE=C3D3
10291, 4699, 4698, 4657
*ELEMENT, TYPE=C3D3
10292, 4741, 4699, 4744
*ELEMENT, TYPE=C3D3
10293, 4778, 4741, 4783
*ELEMENT, TYPE=C3D3
10294, 4737, 4778, 4777
*ELEMENT, TYPE=C3D3
10295, 4741, 4744, 4783
*ELEMENT, TYPE=C3D3
10296, 4778, 4783, 4824
*ELEMENT, TYPE=C3D3
10297, 4777, 4778, 4819
*ELEMENT, TYPE=C3D3
10298, 4783, 4744, 4787
*ELEMENT, TYPE=C3D3
10299, 4778, 4824, 4819
*ELEMENT, TYPE=C3D3
10300, 4787, 4744, 4746
*ELEMENT, TYPE=C3D3
10301, 4783, 4787, 4825
*ELEMENT, TYPE=C3D3
10302, 4819, 4824, 4863
*ELEMENT, TYPE=C3D3
10303, 4746, 4744, 4703
*ELEMENT, TYPE=C3D3
10304, 4825, 4787, 4829
*ELEMENT, TYPE=C3D3
10305, 4819, 4863, 4860
*ELEMENT, TYPE=C3D3
10306, 4703, 4744, 4699
*ELEMENT, TYPE=C3D3
10307, 4829, 4787, 4790
*ELEMENT, TYPE=C3D3
10308, 4860, 4863, 4902
*ELEMENT, TYPE=C3D3
10309, 4790, 4787, 4746
*ELEMENT, TYPE=C3D3
10310, 4902, 4863, 4906
*ELEMENT, TYPE=C3D3
10311, 4906, 4863, 4866
*ELEMENT, TYPE=C3D3
10312, 4866, 4863, 4824
*ELEMENT, TYPE=C3D3
10313, 4906, 4866, 4909
*ELEMENT, TYPE=C3D3
10314, 4866, 4824, 4825
*ELEMENT, TYPE=C3D3
10315, 4909, 4866, 4870
*ELEMENT, TYPE=C3D3
10316, 4825, 4824, 4783
*ELEMENT, TYPE=C3D3
10317, 4866, 4825, 4870
*ELEMENT, TYPE=C3D3
10318, 4819, 4860, 4818
*ELEMENT, TYPE=C3D3
10319, 4818, 4860, 4856
*ELEMENT, TYPE=C3D3
10320, 4819, 4818, 4777
*ELEMENT, TYPE=C3D3
10321, 4906, 4909, 4948
*ELEMENT, TYPE=C3D3
10322, 4948, 4909, 4952
*ELEMENT, TYPE=C3D3
10323, 4952, 4909, 4913
*ELEMENT, TYPE=C3D3
10324, 4913, 4909, 4870
*ELEMENT, TYPE=C3D3
10325, 4952, 4913, 4956
*ELEMENT, TYPE=C3D3
10326, 4956, 4913, 4916
*ELEMENT, TYPE=C3D3
10327, 4952, 4956, 4995
*ELEMENT, TYPE=C3D3
10328, 4916, 4913, 4872
*ELEMENT, TYPE=C3D3
10329, 4995, 4956, 4997
*ELEMENT, TYPE=C3D3
10330, 4872, 4913, 4870
*ELEMENT, TYPE=C3D3
10331, 4997, 4956, 4959
*ELEMENT, TYPE=C3D3
10332, 4872, 4870, 4829
*ELEMENT, TYPE=C3D3
10333, 4959, 4956, 4916
*ELEMENT, TYPE=C3D3
10334, 4829, 4870, 4825
*ELEMENT, TYPE=C3D3
10335, 4872, 4829, 4834
*ELEMENT, TYPE=C3D3
10336, 4834, 4829, 4790
*ELEMENT, TYPE=C3D3
10337, 4997, 4959, 5003
*ELEMENT, TYPE=C3D3
10338, 5003, 4959, 4962
*ELEMENT, TYPE=C3D3
10339, 4997, 5003, 5041
*ELEMENT, TYPE=C3D3
10340, 4962, 4959, 4919
*ELEMENT, TYPE=C3D3
10341, 5041, 5003, 5044
*ELEMENT, TYPE=C3D3
10342, 4919, 4959, 4916
*ELEMENT, TYPE=C3D3
10343, 5044, 5003, 5006
*ELEMENT, TYPE=C3D3
10344, 5006, 5003, 4962
*ELEMENT, TYPE=C3D3
10345, 5044, 5006, 5049
*ELEMENT, TYPE=C3D3
10346, 5044, 5049, 5087
*ELEMENT, TYPE=C3D3
10347, 5087, 5049, 5092
*ELEMENT, TYPE=C3D3
10348, 4919, 4916, 4876
*ELEMENT, TYPE=C3D3
10349, 4876, 4916, 4872
*ELEMENT, TYPE=C3D3
10350, 4876, 4872, 4834
*ELEMENT, TYPE=C3D3
10351, 1508, 1522, 1456
*ELEMENT, TYPE=C3D3
10352, 234, 206, 239
*ELEMENT, TYPE=C3D3
10353, 696, 745, 717
*ELEMENT, TYPE=C3D3
10354, 4055, 4010, 4021
*ELEMENT, TYPE=C3D3
10355, 3762, 3806, 3765
*ELEMENT, TYPE=C3D3
10356, 3787, 3835, 3823
*ELEMENT, TYPE=C3D3
10357, 3823, 3835, 3870
*ELEMENT, TYPE=C3D3
10358, 3823, 3870, 3855
*ELEMENT, TYPE=C3D3
10359, 3855, 3870, 3905
*ELEMENT, TYPE=C3D3
10360, 5428, 5356, 5385
*ELEMENT, TYPE=C3D3
10361, 3554, 3504, 3561
*ELEMENT, TYPE=C3D3
10362, 3273, 3269, 3228
*ELEMENT, TYPE=C3D3
10363, 3228, 3269, 3227
*ELEMENT, TYPE=C3D3
10364, 3228, 3227, 3182
*ELEMENT, TYPE=C3D3
10365, 3474, 3428, 3443
*ELEMENT, TYPE=C3D3
10366, 2387, 2422, 2364
*ELEMENT, TYPE=C3D3
10367, 235, 266, 251
*ELEMENT, TYPE=C3D3
10368, 5094, 5046, 5059
*ELEMENT, TYPE=C3D3
10369, 907, 870, 926
*ELEMENT, TYPE=C3D3
10370, 1932, 1878, 1890
*ELEMENT, TYPE=C3D3
10371, 3158, 3108, 3137
*ELEMENT, TYPE=C3D3
10372, 1590, 1581, 1636
*ELEMENT, TYPE=C3D3
10373, 1590, 1636, 1644
*ELEMENT, TYPE=C3D3
10374, 3537, 3490, 3507
*ELEMENT, TYPE=C3D3
10375, 1858, 1885, 1830
*ELEMENT, TYPE=C3D3
10376, 1173, 1238, 1223
*ELEMENT, TYPE=C3D3
10377, 1173, 1223, 1157
*ELEMENT, TYPE=C3D3
10378, 1173, 1157, 1111
*ELEMENT, TYPE=C3D3
10379, 1, 3, 2
*ELEMENT, TYPE=C3D3
10380, 3002, 3049, 3003
*ELEMENT, TYPE=C3D3
10381, 3002, 3003, 2956
*ELEMENT, TYPE=C3D3
10382, 3003, 3049, 3029
*ELEMENT, TYPE=C3D3
10383, 3976, 3981, 4020
*ELEMENT, TYPE=C3D3
10384, 549, 504, 526
*ELEMENT, TYPE=C3D3
10385, 2762, 2712, 2702
*ELEMENT, TYPE=C3D3
10386, 3319, 3270, 3275
*ELEMENT, TYPE=C3D3
10387, 1475, 1421, 1409
*ELEMENT, TYPE=C3D3
10388, 2549, 2539, 2501
*ELEMENT, TYPE=C3D3
10389, 933, 990, 963
*ELEMENT, TYPE=C3D3
10390, 1925, 1920, 1876
*ELEMENT, TYPE=C3D3
10391, 1876, 1920, 1867
*ELEMENT, TYPE=C3D3
10392, 1925, 1876, 1883
*ELEMENT, TYPE=C3D3
10393, 1876, 1867, 1825
*ELEMENT, TYPE=C3D3
10394, 1883, 1876, 1832
*ELEMENT, TYPE=C3D3
10395, 1925, 1883, 1936
*ELEMENT, TYPE=C3D3
10396, 1825, 1867, 1815
*ELEMENT, TYPE=C3D3
10397, 1876, 1825, 1832
*ELEMENT, TYPE=C3D3
10398, 1925, 1936, 1976
*ELEMENT, TYPE=C3D3
10399, 1825, 1815, 1771
*ELEMENT, TYPE=C3D3
10400, 1832, 1825, 1777
*ELEMENT, TYPE=C3D3
10401, 1771, 1815, 1763
*ELEMENT, TYPE=C3D3
10402, 1777, 1825, 1771
*ELEMENT, TYPE=C3D3
10403, 1763, 1815, 1810
*ELEMENT, TYPE=C3D3
10404, 1777, 1771, 1724
*ELEMENT, TYPE=C3D3
10405, 1810, 1815, 1863
*ELEMENT, TYPE=C3D3
10406, 1777, 1724, 1736
*ELEMENT, TYPE=C3D3
10407, 1863, 1815, 1867
*ELEMENT, TYPE=C3D3
10408, 1736, 1724, 1679
*ELEMENT, TYPE=C3D3
10409, 4330, 4282, 4316
*ELEMENT, TYPE=C3D3
10410, 3634, 3585, 3593
*ELEMENT, TYPE=C3D3
10411, 5598, 5597, 5594
*ELEMENT, TYPE=C3D3
10412, 4243, 4199, 4201
*ELEMENT, TYPE=C3D3
10413, 4201, 4199, 4158
*ELEMENT, TYPE=C3D3
10414, 4201, 4158, 4162
*ELEMENT, TYPE=C3D3
10415, 4584, 4536, 4547
*ELEMENT, TYPE=C3D3
10416, 932, 877, 915
*ELEMENT, TYPE=C3D3
10417, 2815, 2773, 2759
*ELEMENT, TYPE=C3D3
10418, 1469, 1473, 1395
*ELEMENT, TYPE=C3D3
10419, 364, 329, 351
*ELEMENT, TYPE=C3D3
10420, 3691, 3737, 3734
*ELEMENT, TYPE=C3D3
10421, 256, 247, 275
*ELEMENT, TYPE=C3D3
10422, 256, 275, 286
*ELEMENT, TYPE=C3D3
10423, 2425, 2376, 2422
*ELEMENT, TYPE=C3D3
10424, 5562, 5539, 5552
*ELEMENT, TYPE=C3D3
10425, 1730, 1674, 1689
*ELEMENT, TYPE=C3D3
10426, 1689, 1674, 1632
*ELEMENT, TYPE=C3D3
10427, 1689, 1632, 1652
*ELEMENT, TYPE=C3D3
10428, 1689, 1652, 1711
*ELEMENT, TYPE=C3D3
10429, 3748, 3700, 3730
*ELEMENT, TYPE=C3D3
10430, 1556, 1603, 1542
*ELEMENT, TYPE=C3D3
10431, 1556, 1542, 1495
*ELEMENT, TYPE=C3D3
10432, 2242, 2280, 2236
*ELEMENT, TYPE=C3D3
10433, 134, 157, 145
*ELEMENT, TYPE=C3D3
10434, 5283, 5236, 5224
*ELEMENT, TYPE=C3D3
10435, 3829, 3821, 3867
*ELEMENT, TYPE=C3D3
10436, 1046, 1014, 1078
*ELEMENT, TYPE=C3D3
10437, 198, 173, 176
*ELEMENT, TYPE=C3D3
10438, 4875, 4920, 4881
*ELEMENT, TYPE=C3D3
10439, 4881, 4920, 4926
*ELEMENT, TYPE=C3D3
10440, 4875, 4881, 4816
*ELEMENT, TYPE=C3D3
10441, 4844, 4881, 4889
*ELEMENT, TYPE=C3D3
10442, 4881, 4926, 4889
*ELEMENT, TYPE=C3D3
10443, 2150, 2096, 2127
*ELEMENT, TYPE=C3D3
10444, 3191, 3158, 3229
*ELEMENT, TYPE=C3D3
10445, 2313, 2330, 2366
*ELEMENT, TYPE=C3D3
10446, 1748, 1774, 1696
*ELEMENT, TYPE=C3D3
10447, 2393, 2439, 2400
*ELEMENT, TYPE=C3D3
10448, 2400, 2365, 2339
*ELEMENT, TYPE=C3D3
10449, 16, 10, 18
*ELEMENT, TYPE=C3D3
10450, 3358, 3403, 3371
*ELEMENT, TYPE=C3D3
10451, 5294, 5243, 5263
*ELEMENT, TYPE=C3D3
10452, 701, 654, 691
*ELEMENT, TYPE=C3D3
10453, 4556, 4550, 4593
*ELEMENT, TYPE=C3D3
10454, 2962, 2912, 2966
*ELEMENT, TYPE=C3D3
10455, 2962, 2966, 3013
*ELEMENT, TYPE=C3D3
10456, 2841, 2882, 2831
*ELEMENT, TYPE=C3D3
10457, 1454, 1478, 1526
*ELEMENT, TYPE=C3D3
10458, 1526, 1478, 1568
*ELEMENT, TYPE=C3D3
10459, 1454, 1526, 1529
*ELEMENT, TYPE=C3D3
10460, 1529, 1526, 1591
*ELEMENT, TYPE=C3D3
10461, 714, 768, 743
*ELEMENT, TYPE=C3D3
10462, 4520, 4474, 4482
*ELEMENT, TYPE=C3D3
10463, 3664, 3634, 3683
*ELEMENT, TYPE=C3D3
10464, 618, 573, 598
*ELEMENT, TYPE=C3D3
10465, 618, 598, 647
*ELEMENT, TYPE=C3D3
10466, 1178, 1114, 1124
*ELEMENT, TYPE=C3D3
10467, 4606, 4652, 4613
*ELEMENT, TYPE=C3D3
10468, 2604, 2591, 2552
*ELEMENT, TYPE=C3D3
10469, 2552, 2591, 2536
*ELEMENT, TYPE=C3D3
10470, 1568, 1591, 1526
*ELEMENT, TYPE=C3D3
10471, 1462, 1523, 1516
*ELEMENT, TYPE=C3D3
10472, 1799, 1850, 1807
*ELEMENT, TYPE=C3D3
10473, 1799, 1807, 1754
*ELEMENT, TYPE=C3D3
10474, 1754, 1807, 1761
*ELEMENT, TYPE=C3D3
10475, 133, 113, 109
*ELEMENT, TYPE=C3D3
10476, 3185, 3229, 3158
*ELEMENT, TYPE=C3D3
10477, 3185, 3158, 3137
*ELEMENT, TYPE=C3D3
10478, 3185, 3137, 3179
*ELEMENT, TYPE=C3D3
10479, 777, 812, 829
*ELEMENT, TYPE=C3D3
10480, 777, 829, 792
*ELEMENT, TYPE=C3D3
10481, 4452, 4484, 4430
*ELEMENT, TYPE=C3D3
10482, 4115, 4161, 4119
*ELEMENT, TYPE=C3D3
10483, 4119, 4161, 4139
*ELEMENT, TYPE=C3D3
10484, 4115, 4119, 4077
*ELEMENT, TYPE=C3D3
10485, 4077, 4119, 4094
*ELEMENT, TYPE=C3D3
10486, 4139, 4161, 4188
*ELEMENT, TYPE=C3D3
10487, 909, 886, 942
*ELEMENT, TYPE=C3D3
10488, 3357, 3310, 3307
*ELEMENT, TYPE=C3D3
10489, 3307, 3310, 3260
*ELEMENT, TYPE=C3D3
10490, 2870, 2826, 2809
*ELEMENT, TYPE=C3D3
10491, 3428, 3396, 3443
*ELEMENT, TYPE=C3D3
10492, 2534, 2569, 2492
*ELEMENT, TYPE=C3D3
10493, 1912, 1857, 1874
*ELEMENT, TYPE=C3D3
10494, 1912, 1874, 1930
*ELEMENT, TYPE=C3D3
10495, 365, 400, 387
*ELEMENT, TYPE=C3D3
10496, 4903, 4853, 4896
*ELEMENT, TYPE=C3D3
10497, 1707, 1647, 1693
*ELEMENT, TYPE=C3D3
10498, 3108, 3083, 3137
*ELEMENT, TYPE=C3D3
10499, 4244, 4278, 4302
*ELEMENT, TYPE=C3D3
10500, 4302, 4314, 4348
*ELEMENT, TYPE=C3D3
10501, 2536, 2509, 2477
*ELEMENT, TYPE=C3D3
10502, 2477, 2509, 2454
*ELEMENT, TYPE=C3D3
10503, 1975, 2008, 1937
*ELEMENT, TYPE=C3D3
10504, 3916, 3923, 3961
*ELEMENT, TYPE=C3D3
10505, 3916, 3961, 3956
*ELEMENT, TYPE=C3D3
10506, 3956, 3961, 4001
*ELEMENT, TYPE=C3D3
10507, 3956, 4001, 3993
*ELEMENT, TYPE=C3D3
10508, 3993, 4001, 4038
*ELEMENT, TYPE=C3D3
10509, 17, 25, 22
*ELEMENT, TYPE=C3D3
10510, 3538, 3582, 3533
*ELEMENT, TYPE=C3D3
10511, 2087, 2032, 2053
*ELEMENT, TYPE=C3D3
10512, 5132, 5088, 5128
*ELEMENT, TYPE=C3D3
10513, 4652, 4685, 4716
*ELEMENT, TYPE=C3D3
10514, 2556, 2507, 2525
*ELEMENT, TYPE=C3D3
10515, 2386, 2409, 2435
*ELEMENT, TYPE=C3D3
10516, 2435, 2409, 2463
*ELEMENT, TYPE=C3D3
10517, 2386, 2435, 2434
*ELEMENT, TYPE=C3D3
10518, 2434, 2435, 2481
*ELEMENT, TYPE=C3D3
10519, 2481, 2435, 2463
*ELEMENT, TYPE=C3D3
10520, 1179, 1247, 1213
*ELEMENT, TYPE=C3D3
10521, 4135, 4087, 4107
*ELEMENT, TYPE=C3D3
10522, 673, 627, 670
*ELEMENT, TYPE=C3D3
10523, 673, 670, 712
*ELEMENT, TYPE=C3D3
10524, 673, 712, 718
*ELEMENT, TYPE=C3D3
10525, 5593, 5591, 5582
*ELEMENT, TYPE=C3D3
10526, 4505, 4458, 4484
*ELEMENT, TYPE=C3D3
10527, 713, 662, 725
*ELEMENT, TYPE=C3D3
10528, 2956, 2918, 2955
*ELEMENT, TYPE=C3D3
10529, 2955, 2918, 2893
*ELEMENT, TYPE=C3D3
10530, 2403, 2445, 2437
*ELEMENT, TYPE=C3D3
10531, 2403, 2437, 2373
*ELEMENT, TYPE=C3D3
10532, 1455, 1461, 1388
*ELEMENT, TYPE=C3D3
10533, 2842, 2825, 2787
*ELEMENT, TYPE=C3D3
10534, 1808, 1862, 1820
*ELEMENT, TYPE=C3D3
10535, 442, 399, 419
*ELEMENT, TYPE=C3D3
10536, 1499, 1562, 1567
*ELEMENT, TYPE=C3D3
10537, 165, 143, 149
*ELEMENT, TYPE=C3D3
10538, 165, 149, 172
*ELEMENT, TYPE=C3D3
10539, 1923, 1892, 1869
*ELEMENT, TYPE=C3D3
10540, 503, 455, 492
*ELEMENT, TYPE=C3D3
10541, 2826, 2804, 2766
*ELEMENT, TYPE=C3D3
10542, 4376, 4421, 4417
*ELEMENT, TYPE=C3D3
10543, 4376, 4417, 4374
*ELEMENT, TYPE=C3D3
10544, 4374, 4417, 4414
*ELEMENT, TYPE=C3D3
10545, 4376, 4374, 4336
*ELEMENT, TYPE=C3D3
10546, 4414, 4417, 4457
*ELEMENT, TYPE=C3D3
10547, 4374, 4414, 4370
*ELEMENT, TYPE=C3D3
10548, 4336, 4374, 4331
*ELEMENT, TYPE=C3D3
10549, 4414, 4457, 4453
*ELEMENT, TYPE=C3D3
10550, 4374, 4370, 4331
*ELEMENT, TYPE=C3D3
10551, 4414, 4453, 4409
*ELEMENT, TYPE=C3D3
10552, 4331, 4370, 4327
*ELEMENT, TYPE=C3D3
10553, 4414, 4409, 4370
*ELEMENT, TYPE=C3D3
10554, 4376, 4336, 4340
*ELEMENT, TYPE=C3D3
10555, 3846, 3796, 3815
*ELEMENT, TYPE=C3D3
10556, 3400, 3356, 3359
*ELEMENT, TYPE=C3D3
10557, 2175, 2209, 2173
*ELEMENT, TYPE=C3D3
10558, 2426, 2440, 2474
*ELEMENT, TYPE=C3D3
10559, 2474, 2440, 2488
*ELEMENT, TYPE=C3D3
10560, 95, 114, 102
*ELEMENT, TYPE=C3D3
10561, 5378, 5349, 5390
*ELEMENT, TYPE=C3D3
10562, 317, 281, 298
*ELEMENT, TYPE=C3D3
10563, 322, 351, 329
*ELEMENT, TYPE=C3D3
10564, 5028, 5074, 5017
*ELEMENT, TYPE=C3D3
10565, 2254, 2202, 2264
*ELEMENT, TYPE=C3D3
10566, 2804, 2823, 2767
*ELEMENT, TYPE=C3D3
10567, 2636, 2679, 2674
*ELEMENT, TYPE=C3D3
10568, 2674, 2679, 2722
*ELEMENT, TYPE=C3D3
10569, 2636, 2674, 2631
*ELEMENT, TYPE=C3D3
10570, 2722, 2679, 2728
*ELEMENT, TYPE=C3D3
10571, 2636, 2631, 2589
*ELEMENT, TYPE=C3D3
10572, 1697, 1720, 1650
*ELEMENT, TYPE=C3D3
10573, 34, 24, 32
*ELEMENT, TYPE=C3D3
10574, 3358, 3319, 3313
*ELEMENT, TYPE=C3D3
10575, 3313, 3319, 3275
*ELEMENT, TYPE=C3D3
10576, 3983, 3954, 4002
*ELEMENT, TYPE=C3D3
10577, 4002, 3954, 3962
*ELEMENT, TYPE=C3D3
10578, 3962, 3954, 3914
*ELEMENT, TYPE=C3D3
10579, 3983, 4002, 4032
*ELEMENT, TYPE=C3D3
10580, 4032, 4002, 4045
*ELEMENT, TYPE=C3D3
10581, 4045, 4002, 3996
*ELEMENT, TYPE=C3D3
10582, 1997, 1944, 2008
*ELEMENT, TYPE=C3D3
10583, 1734, 1729, 1802
*ELEMENT, TYPE=C3D3
10584, 3061, 3013, 3050
*ELEMENT, TYPE=C3D3
10585, 617, 663, 642
*ELEMENT, TYPE=C3D3
10586, 14, 8, 11
*ELEMENT, TYPE=C3D3
10587, 4564, 4580, 4618
*ELEMENT, TYPE=C3D3
10588, 1314, 1246, 1236
*ELEMENT, TYPE=C3D3
10589, 1538, 1554, 1492
*ELEMENT, TYPE=C3D3
10590, 2774, 2723, 2741
*ELEMENT, TYPE=C3D3
10591, 480, 494, 453
*ELEMENT, TYPE=C3D3
10592, 179, 168, 190
*ELEMENT, TYPE=C3D3
10593, 4286, 4237, 4244
*ELEMENT, TYPE=C3D3
10594, 3440, 3482, 3439
*ELEMENT, TYPE=C3D3
10595, 3440, 3439, 3397
*ELEMENT, TYPE=C3D3
10596, 3397, 3439, 3394
*ELEMENT, TYPE=C3D3
10597, 3397, 3394, 3352
*ELEMENT, TYPE=C3D3
10598, 588, 567, 611
*ELEMENT, TYPE=C3D3
10599, 5409, 5445, 5397
*ELEMENT, TYPE=C3D3
10600, 805, 850, 803
*ELEMENT, TYPE=C3D3
10601, 2949, 2907, 2905
*ELEMENT, TYPE=C3D3
10602, 2905, 2907, 2863
*ELEMENT, TYPE=C3D3
10603, 2863, 2907, 2866
*ELEMENT, TYPE=C3D3
10604, 2905, 2863, 2859
*ELEMENT, TYPE=C3D3
10605, 2866, 2907, 2893
*ELEMENT, TYPE=C3D3
10606, 2866, 2893, 2842
*ELEMENT, TYPE=C3D3
10607, 2866, 2842, 2821
*ELEMENT, TYPE=C3D3
10608, 2863, 2866, 2821
*ELEMENT, TYPE=C3D3
10609, 2859, 2863, 2820
*ELEMENT, TYPE=C3D3
10610, 3453, 3405, 3433
*ELEMENT, TYPE=C3D3
10611, 2461, 2496, 2425
*ELEMENT, TYPE=C3D3
10612, 298, 330, 317
*ELEMENT, TYPE=C3D3
10613, 3811, 3858, 3821
*ELEMENT, TYPE=C3D3
10614, 3821, 3858, 3867
*ELEMENT, TYPE=C3D3
10615, 3811, 3821, 3760
*ELEMENT, TYPE=C3D3
10616, 3791, 3821, 3829
*ELEMENT, TYPE=C3D3
10617, 4999, 4951, 4977
*ELEMENT, TYPE=C3D3
10618, 4573, 4614, 4610
*ELEMENT, TYPE=C3D3
10619, 4573, 4610, 4571
*ELEMENT, TYPE=C3D3
10620, 4571, 4610, 4609
*ELEMENT, TYPE=C3D3
10621, 4573, 4571, 4529
*ELEMENT, TYPE=C3D3
10622, 4609, 4610, 4651
*ELEMENT, TYPE=C3D3
10623, 4571, 4609, 4580
*ELEMENT, TYPE=C3D3
10624, 4609, 4651, 4643
*ELEMENT, TYPE=C3D3
10625, 4580, 4609, 4643
*ELEMENT, TYPE=C3D3
10626, 1822, 1766, 1793
*ELEMENT, TYPE=C3D3
10627, 1917, 1947, 1884
*ELEMENT, TYPE=C3D3
10628, 2609, 2623, 2656
*ELEMENT, TYPE=C3D3
10629, 6, 11, 8
*ELEMENT, TYPE=C3D3
10630, 3493, 3538, 3533
*ELEMENT, TYPE=C3D3
10631, 2926, 2881, 2884
*ELEMENT, TYPE=C3D3
10632, 2884, 2881, 2837
*ELEMENT, TYPE=C3D3
10633, 2926, 2884, 2929
*ELEMENT, TYPE=C3D3
10634, 2926, 2929, 2970
*ELEMENT, TYPE=C3D3
10635, 4685, 4726, 4732
*ELEMENT, TYPE=C3D3
10636, 4685, 4732, 4716
*ELEMENT, TYPE=C3D3
10637, 2660, 2608, 2617
*ELEMENT, TYPE=C3D3
10638, 2276, 2299, 2248
*ELEMENT, TYPE=C3D3
10639, 2248, 2299, 2274
*ELEMENT, TYPE=C3D3
10640, 2274, 2299, 2326
*ELEMENT, TYPE=C3D3
10641, 1049, 1115, 1086
*ELEMENT, TYPE=C3D3
10642, 4230, 4183, 4232
*ELEMENT, TYPE=C3D3
10643, 4230, 4232, 4282
*ELEMENT, TYPE=C3D3
10644, 4878, 4917, 4871
*ELEMENT, TYPE=C3D3
10645, 4878, 4871, 4835
*ELEMENT, TYPE=C3D3
10646, 5596, 5586, 5592
*ELEMENT, TYPE=C3D3
10647, 819, 767, 818
*ELEMENT, TYPE=C3D3
10648, 1487, 1405, 1410
*ELEMENT, TYPE=C3D3
10649, 1047, 1109, 1066
*ELEMENT, TYPE=C3D3
10650, 1047, 1066, 1008
*ELEMENT, TYPE=C3D3
10651, 297, 265, 291
*ELEMENT, TYPE=C3D3
10652, 4302, 4286, 4244
*ELEMENT, TYPE=C3D3
10653, 3653, 3602, 3644
*ELEMENT, TYPE=C3D3
10654, 2316, 2348, 2297
*ELEMENT, TYPE=C3D3
10655, 180, 207, 197
*ELEMENT, TYPE=C3D3
10656, 5187, 5139, 5142
*ELEMENT, TYPE=C3D3
10657, 245, 217, 224
*ELEMENT, TYPE=C3D3
10658, 224, 217, 198
*ELEMENT, TYPE=C3D3
10659, 2042, 1986, 1985
*ELEMENT, TYPE=C3D3
10660, 1985, 1986, 1932
*ELEMENT, TYPE=C3D3
10661, 1802, 1828, 1776
*ELEMENT, TYPE=C3D3
10662, 1776, 1828, 1858
*ELEMENT, TYPE=C3D3
10663, 5, 2, 7
*ELEMENT, TYPE=C3D3
10664, 4977, 5019, 4999
*ELEMENT, TYPE=C3D3
10665, 251, 223, 235
*ELEMENT, TYPE=C3D3
10666, 2862, 2834, 2878
*ELEMENT, TYPE=C3D3
10667, 2886, 2839, 2845
*ELEMENT, TYPE=C3D3
10668, 2921, 2964, 2919
*ELEMENT, TYPE=C3D3
10669, 2921, 2919, 2876
*ELEMENT, TYPE=C3D3
10670, 2876, 2919, 2870
*ELEMENT, TYPE=C3D3
10671, 2921, 2876, 2882
*ELEMENT, TYPE=C3D3
10672, 2876, 2870, 2809
*ELEMENT, TYPE=C3D3
10673, 2882, 2876, 2831
*ELEMENT, TYPE=C3D3
10674, 1478, 1492, 1568
*ELEMENT, TYPE=C3D3
10675, 820, 878, 846
*ELEMENT, TYPE=C3D3
10676, 4425, 4377, 4399
*ELEMENT, TYPE=C3D3
10677, 5590, 5594, 5597
*ELEMENT, TYPE=C3D3
10678, 1048, 989, 1016
*ELEMENT, TYPE=C3D3
10679, 1402, 1462, 1399
*ELEMENT, TYPE=C3D3
10680, 1608, 1629, 1562
*ELEMENT, TYPE=C3D3
10681, 94, 75, 79
*ELEMENT, TYPE=C3D3
10682, 3461, 3423, 3470
*ELEMENT, TYPE=C3D3
10683, 3470, 3423, 3434
*ELEMENT, TYPE=C3D3
10684, 3470, 3434, 3483
*ELEMENT, TYPE=C3D3
10685, 3260, 3212, 3221
*ELEMENT, TYPE=C3D3
10686, 2603, 2646, 2624
*ELEMENT, TYPE=C3D3
10687, 443, 482, 464
*ELEMENT, TYPE=C3D3
10688, 1587, 1521, 1593
*ELEMENT, TYPE=C3D3
10689, 2043, 2074, 1997
*ELEMENT, TYPE=C3D3
10690, 35, 46, 42
*ELEMENT, TYPE=C3D3
10691, 4812, 4859, 4832
*ELEMENT, TYPE=C3D3
10692, 4832, 4859, 4896
*ELEMENT, TYPE=C3D3
10693, 350, 317, 330
*ELEMENT, TYPE=C3D3
10694, 5269, 5306, 5283
*ELEMENT, TYPE=C3D3
10695, 1838, 1830, 1917
*ELEMENT, TYPE=C3D3
10696, 2460, 2411, 2441
*ELEMENT, TYPE=C3D3
10697, 1315, 1382, 1355
*ELEMENT, TYPE=C3D3
10698, 5552, 5571, 5562
*ELEMENT, TYPE=C3D3
10699, 5562, 5571, 5578
*ELEMENT, TYPE=C3D3
10700, 5578, 5571, 5589
*ELEMENT, TYPE=C3D3
10701, 5562, 5578, 5574
*ELEMENT, TYPE=C3D3
10702, 5574, 5578, 5585
*ELEMENT, TYPE=C3D3
10703, 5585, 5578, 5589
*ELEMENT, TYPE=C3D3
10704, 5574, 5585, 5584
*ELEMENT, TYPE=C3D3
10705, 4040, 3994, 3980
*ELEMENT, TYPE=C3D3
10706, 4069, 4027, 4072
*ELEMENT, TYPE=C3D3
10707, 4069, 4072, 4111
*ELEMENT, TYPE=C3D3
10708, 4111, 4072, 4114
*ELEMENT, TYPE=C3D3
10709, 4430, 4394, 4452
*ELEMENT, TYPE=C3D3
10710, 4430, 4484, 4458
*ELEMENT, TYPE=C3D3
10711, 616, 570, 561
*ELEMENT, TYPE=C3D3
10712, 1451, 1388, 1355
*ELEMENT, TYPE=C3D3
10713, 4779, 4812, 4761
*ELEMENT, TYPE=C3D3
10714, 4779, 4761, 4731
*ELEMENT, TYPE=C3D3
10715, 455, 442, 419
*ELEMENT, TYPE=C3D3
10716, 3893, 3846, 3898
*ELEMENT, TYPE=C3D3
10717, 5532, 5526, 5500
*ELEMENT, TYPE=C3D3
10718, 2139, 2175, 2114
*ELEMENT, TYPE=C3D3
10719, 76, 95, 85
*ELEMENT, TYPE=C3D3
10720, 5425, 5378, 5390
*ELEMENT, TYPE=C3D3
10721, 2036, 2065, 2011
*ELEMENT, TYPE=C3D3
10722, 4732, 4772, 4716
*ELEMENT, TYPE=C3D3
10723, 4716, 4772, 4780
*ELEMENT, TYPE=C3D3
10724, 2304, 2254, 2264
*ELEMENT, TYPE=C3D3
10725, 1077, 1059, 1119
*ELEMENT, TYPE=C3D3
10726, 45, 34, 43
*ELEMENT, TYPE=C3D3
10727, 4094, 4045, 4077
*ELEMENT, TYPE=C3D3
10728, 284, 254, 282
*ELEMENT, TYPE=C3D3
10729, 284, 282, 310
*ELEMENT, TYPE=C3D3
10730, 3109, 3061, 3050
*ELEMENT, TYPE=C3D3
10731, 2947, 2908, 2954
*ELEMENT, TYPE=C3D3
10732, 2947, 2954, 2994
*ELEMENT, TYPE=C3D3
10733, 571, 617, 595
*ELEMENT, TYPE=C3D3
10734, 4441, 4452, 4394
*ELEMENT, TYPE=C3D3
10735, 1381, 1314, 1354
*ELEMENT, TYPE=C3D3
10736, 4397, 4441, 4394
*ELEMENT, TYPE=C3D3
10737, 1522, 1538, 1456
*ELEMENT, TYPE=C3D3
10738, 2723, 2701, 2663
*ELEMENT, TYPE=C3D3
10739, 318, 352, 325
*ELEMENT, TYPE=C3D3
10740, 206, 179, 190
*ELEMENT, TYPE=C3D3
10741, 3504, 3453, 3478
*ELEMENT, TYPE=C3D3
10742, 2422, 2461, 2425
*ELEMENT, TYPE=C3D3
10743, 266, 298, 281
*ELEMENT, TYPE=C3D3
10744, 5046, 5019, 5059
*ELEMENT, TYPE=C3D3
10745, 5074, 5083, 5017
*ELEMENT, TYPE=C3D3
10746, 1878, 1822, 1890
*ELEMENT, TYPE=C3D3
10747, 3962, 3996, 4002
*ELEMENT, TYPE=C3D3
10748, 1885, 1917, 1830
*ELEMENT, TYPE=C3D3
10749, 3, 6, 4
*ELEMENT, TYPE=C3D3
10750, 2712, 2660, 2702
*ELEMENT, TYPE=C3D3
10751, 1122, 1135, 1182
*ELEMENT, TYPE=C3D3
10752, 990, 1049, 1025
*ELEMENT, TYPE=C3D3
10753, 5597, 5596, 5592
*ELEMENT, TYPE=C3D3
10754, 4361, 4405, 4402
*ELEMENT, TYPE=C3D3
10755, 877, 819, 818
*ELEMENT, TYPE=C3D3
10756, 2434, 2393, 2386
*ELEMENT, TYPE=C3D3
10757, 1473, 1487, 1410
*ELEMENT, TYPE=C3D3
10758, 2825, 2774, 2787
*ELEMENT, TYPE=C3D3
10759, 1944, 1894, 1937
*ELEMENT, TYPE=C3D3
10760, 1944, 1937, 2008
*ELEMENT, TYPE=C3D3
10761, 329, 297, 291
*ELEMENT, TYPE=C3D3
10762, 3700, 3653, 3644
*ELEMENT, TYPE=C3D3
10763, 2280, 2316, 2236
*ELEMENT, TYPE=C3D3
10764, 2630, 2610, 2673
*ELEMENT, TYPE=C3D3
10765, 157, 180, 171
*ELEMENT, TYPE=C3D3
10766, 5236, 5187, 5224
*ELEMENT, TYPE=C3D3
10767, 2096, 2042, 2079
*ELEMENT, TYPE=C3D3
10768, 1213, 1150, 1179
*ELEMENT, TYPE=C3D3
10769, 1774, 1802, 1729
*ELEMENT, TYPE=C3D3
10770, 10, 5, 7
*ELEMENT, TYPE=C3D3
10771, 4780, 4830, 4816
*ELEMENT, TYPE=C3D3
10772, 2912, 2862, 2878
*ELEMENT, TYPE=C3D3
10773, 768, 820, 793
*ELEMENT, TYPE=C3D3
10774, 4474, 4425, 4482
*ELEMENT, TYPE=C3D3
10775, 1114, 1048, 1124
*ELEMENT, TYPE=C3D3
10776, 1591, 1608, 1529
*ELEMENT, TYPE=C3D3
10777, 113, 94, 109
*ELEMENT, TYPE=C3D3
10778, 1545, 1490, 1567
*ELEMENT, TYPE=C3D3
10779, 2569, 2603, 2553
*ELEMENT, TYPE=C3D3
10780, 2892, 2864, 2914
*ELEMENT, TYPE=C3D3
10781, 1650, 1585, 1638
*ELEMENT, TYPE=C3D3
10782, 400, 443, 426
*ELEMENT, TYPE=C3D3
10783, 5164, 5209, 5175
*ELEMENT, TYPE=C3D3
10784, 1647, 1587, 1593
*ELEMENT, TYPE=C3D3
10785, 2008, 2043, 1997
*ELEMENT, TYPE=C3D3
10786, 25, 35, 31
*ELEMENT, TYPE=C3D3
10787, 1388, 1451, 1455
*ELEMENT, TYPE=C3D3
10788, 2507, 2460, 2484
*ELEMENT, TYPE=C3D3
10789, 1247, 1315, 1281
*ELEMENT, TYPE=C3D3
10790, 4087, 4040, 4064
*ELEMENT, TYPE=C3D3
10791, 2018, 1965, 1987
*ELEMENT, TYPE=C3D3
10792, 5591, 5589, 5582
*ELEMENT, TYPE=C3D3
10793, 662, 616, 641
*ELEMENT, TYPE=C3D3
10794, 1461, 1469, 1395
*ELEMENT, TYPE=C3D3
10795, 4273, 4316, 4282
*ELEMENT, TYPE=C3D3
10796, 399, 384, 419
*ELEMENT, TYPE=C3D3
10797, 2952, 2955, 2893
*ELEMENT, TYPE=C3D3
10798, 3796, 3773, 3815
*ELEMENT, TYPE=C3D3
10799, 2209, 2242, 2173
*ELEMENT, TYPE=C3D3
10800, 2678, 2630, 2673
*ELEMENT, TYPE=C3D3
10801, 114, 134, 124
*ELEMENT, TYPE=C3D3
10802, 5332, 5283, 5306
*ELEMENT, TYPE=C3D3
10803, 2202, 2150, 2170
*ELEMENT, TYPE=C3D3
10804, 1720, 1748, 1688
*ELEMENT, TYPE=C3D3
10805, 2564, 2514, 2535
*ELEMENT, TYPE=C3D3
10806, 24, 16, 18
*ELEMENT, TYPE=C3D3
10807, 5184, 5224, 5187
*ELEMENT, TYPE=C3D3
10808, 4547, 4572, 4596
*ELEMENT, TYPE=C3D3
10809, 663, 714, 690
*ELEMENT, TYPE=C3D3
10810, 3934, 3891, 3930
*ELEMENT, TYPE=C3D3
10811, 1437, 1456, 1538
*ELEMENT, TYPE=C3D3
10812, 1375, 1327, 1393
*ELEMENT, TYPE=C3D3
10813, 1246, 1178, 1236
*ELEMENT, TYPE=C3D3
10814, 1554, 1568, 1492
*ELEMENT, TYPE=C3D3
10815, 2701, 2654, 2663
*ELEMENT, TYPE=C3D3
10816, 156, 133, 148
*ELEMENT, TYPE=C3D3
10817, 2818, 2815, 2759
*ELEMENT, TYPE=C3D3
10818, 3405, 3357, 3391
*ELEMENT, TYPE=C3D3
10819, 2496, 2534, 2492
*ELEMENT, TYPE=C3D3
10820, 330, 365, 350
*ELEMENT, TYPE=C3D3
10821, 4951, 4903, 4896
*ELEMENT, TYPE=C3D3
10822, 1766, 1707, 1693
*ELEMENT, TYPE=C3D3
10823, 1947, 1975, 1937
*ELEMENT, TYPE=C3D3
10824, 11, 17, 14
*ELEMENT, TYPE=C3D3
10825, 1830, 1784, 1858
*ELEMENT, TYPE=C3D3
10826, 2608, 2556, 2617
*ELEMENT, TYPE=C3D3
10827, 1115, 1179, 1150
*ELEMENT, TYPE=C3D3
10828, 5128, 5164, 5175
*ELEMENT, TYPE=C3D3
10829, 4183, 4135, 4149
*ELEMENT, TYPE=C3D3
10830, 5595, 5593, 5587
*ELEMENT, TYPE=C3D3
10831, 4536, 4505, 4547
*ELEMENT, TYPE=C3D3
10832, 767, 713, 725
*ELEMENT, TYPE=C3D3
10833, 1889, 1884, 1947
*ELEMENT, TYPE=C3D3
10834, 1498, 1508, 1436
*ELEMENT, TYPE=C3D3
10835, 265, 234, 239
*ELEMENT, TYPE=C3D3
10836, 5539, 5521, 5552
*ELEMENT, TYPE=C3D3
10837, 2511, 2492, 2569
*ELEMENT, TYPE=C3D3
10838, 3602, 3554, 3561
*ELEMENT, TYPE=C3D3
10839, 2348, 2387, 2323
*ELEMENT, TYPE=C3D3
10840, 207, 235, 223
*ELEMENT, TYPE=C3D3
10841, 5139, 5094, 5142
*ELEMENT, TYPE=C3D3
10842, 2498, 2448, 2467
*ELEMENT, TYPE=C3D3
10843, 5243, 5211, 5263
*ELEMENT, TYPE=C3D3
10844, 4830, 4875, 4816
*ELEMENT, TYPE=C3D3
10845, 2810, 2762, 2788
*ELEMENT, TYPE=C3D3
10846, 878, 933, 906
*ELEMENT, TYPE=C3D3
10847, 4033, 4077, 4045
*ELEMENT, TYPE=C3D3
10848, 4377, 4330, 4316
*ELEMENT, TYPE=C3D3
10849, 989, 932, 967
*ELEMENT, TYPE=C3D3
10850, 75, 58, 79
*ELEMENT, TYPE=C3D3
10851, 4651, 4693, 4643
*ELEMENT, TYPE=C3D3
10852, 197, 171, 180
*ELEMENT, TYPE=C3D3
10853, 2252, 2236, 2316
*ELEMENT, TYPE=C3D3
10854, 5403, 5369, 5411
*ELEMENT, TYPE=C3D3
10855, 3212, 3160, 3221
*ELEMENT, TYPE=C3D3
10856, 2646, 2684, 2624
*ELEMENT, TYPE=C3D3
10857, 1492, 1437, 1538
*ELEMENT, TYPE=C3D3
10858, 482, 526, 504
*ELEMENT, TYPE=C3D3
10859, 1521, 1448, 1476
*ELEMENT, TYPE=C3D3
10860, 2074, 2107, 2054
*ELEMENT, TYPE=C3D3
10861, 46, 59, 55
*ELEMENT, TYPE=C3D3
10862, 5088, 5051, 5083
*ELEMENT, TYPE=C3D3
10863, 2411, 2358, 2350
*ELEMENT, TYPE=C3D3
10864, 3994, 3944, 3980
*ELEMENT, TYPE=C3D3
10865, 4107, 4149, 4135
*ELEMENT, TYPE=C3D3
10866, 570, 525, 561
*ELEMENT, TYPE=C3D3
10867, 2820, 2863, 2821
*ELEMENT, TYPE=C3D3
10868, 5411, 5369, 5356
*ELEMENT, TYPE=C3D3
10869, 3443, 3493, 3474
*ELEMENT, TYPE=C3D3
10870, 2393, 2400, 2339
*ELEMENT, TYPE=C3D3
10871, 2809, 2831, 2876
*ELEMENT, TYPE=C3D3
10872, 2416, 2367, 2373
*ELEMENT, TYPE=C3D3
10873, 1382, 1451, 1355
*ELEMENT, TYPE=C3D3
10874, 2, 3, 4

*MATERIAL,NAME=UserDefined
*MATERIAL,NAME=TrussProperties
*MATERIAL,NAME=BeamProperties
*MATERIAL,NAME=Isotropic2D
*MATERIAL,NAME=Isotropic3D
*MATERIAL,NAME=DruckerPrager
*MATERIAL,NAME=IsotropicDamage3D
*MATERIAL,NAME=Isotropic3Dshell
*MATERIAL,NAME=GroutingMortar
*MATERIAL,NAME=VonMises
*MATERIAL,NAME=PhaseField
*MATERIAL,NAME=CamClay

*ELSET,ELSET=Isotropic2D_Set
1,
2,
3,
4,
5,
6,
7,
8,
9,
10,
11,
12,
13,
14,
15,
16,
17,
18,
19,
20,
21,
22,
23,
24,
25,
26,
27,
28,
29,
30,
31,
32,
33,
34,
35,
36,
37,
38,
39,
40,
41,
42,
43,
44,
45,
46,
47,
48,
49,
50,
51,
52,
53,
54,
55,
56,
57,
58,
59,
60,
61,
62,
63,
64,
65,
66,
67,
68,
69,
70,
71,
72,
73,
74,
75,
76,
77,
78,
79,
80,
81,
82,
83,
84,
85,
86,
87,
88,
89,
90,
91,
92,
93,
94,
95,
96,
97,
98,
99,
100,
101,
102,
103,
104,
105,
106,
107,
108,
109,
110,
111,
112,
113,
114,
115,
116,
117,
118,
119,
120,
121,
122,
123,
124,
125,
126,
127,
128,
129,
130,
131,
132,
133,
134,
135,
136,
137,
138,
139,
140,
141,
142,
143,
144,
145,
146,
147,
148,
149,
150,
151,
152,
153,
154,
155,
156,
157,
158,
159,
160,
161,
162,
163,
164,
165,
166,
167,
168,
169,
170,
171,
172,
173,
174,
175,
176,
177,
178,
179,
180,
181,
182,
183,
184,
185,
186,
187,
188,
189,
190,
191,
192,
193,
194,
195,
196,
197,
198,
199,
200,
201,
202,
203,
204,
205,
206,
207,
208,
209,
210,
211,
212,
213,
214,
215,
216,
217,
218,
219,
220,
221,
222,
223,
224,
225,
226,
227,
228,
229,
230,
231,
232,
233,
234,
235,
236,
237,
238,
239,
240,
241,
242,
243,
244,
245,
246,
247,
248,
249,
250,
251,
252,
253,
254,
255,
256,
257,
258,
259,
260,
261,
262,
263,
264,
265,
266,
267,
268,
269,
270,
271,
272,
273,
274,
275,
276,
277,
278,
279,
280,
281,
282,
283,
284,
285,
286,
287,
288,
289,
290,
291,
292,
293,
294,
295,
296,
297,
298,
299,
300,
301,
302,
303,
304,
305,
306,
307,
308,
309,
310,
311,
312,
313,
314,
315,
316,
317,
318,
319,
320,
321,
322,
323,
324,
325,
326,
327,
328,
329,
330,
331,
332,
333,
334,
335,
336,
337,
338,
339,
340,
341,
342,
343,
344,
345,
346,
347,
348,
349,
350,
351,
352,
353,
354,
355,
356,
357,
358,
359,
360,
361,
362,
363,
364,
365,
366,
367,
368,
369,
370,
371,
372,
373,
374,
375,
376,
377,
378,
379,
380,
381,
382,
383,
384,
385,
386,
387,
388,
389,
390,
391,
392,
393,
394,
395,
396,
397,
398,
399,
400,
401,
402,
403,
404,
405,
406,
407,
408,
409,
410,
411,
412,
413,
414,
415,
416,
417,
418,
419,
420,
421,
422,
423,
424,
425,
426,
427,
428,
429,
430,
431,
432,
433,
434,
435,
436,
437,
438,
439,
440,
441,
442,
443,
444,
445,
446,
447,
448,
449,
450,
451,
452,
453,
454,
455,
456,
457,
458,
459,
460,
461,
462,
463,
464,
465,
466,
467,
468,
469,
470,
471,
472,
473,
474,
475,
476,
477,
478,
479,
480,
481,
482,
483,
484,
485,
486,
487,
488,
489,
490,
491,
492,
493,
494,
495,
496,
497,
498,
499,
500,
501,
502,
503,
504,
505,
506,
507,
508,
509,
510,
511,
512,
513,
514,
515,
516,
517,
518,
519,
520,
521,
522,
523,
524,
525,
526,
527,
528,
529,
530,
531,
532,
533,
534,
535,
536,
537,
538,
539,
540,
541,
542,
543,
544,
545,
546,
547,
548,
549,
550,
551,
552,
553,
554,
555,
556,
557,
558,
559,
560,
561,
562,
563,
564,
565,
566,
567,
568,
569,
570,
571,
572,
573,
574,
575,
576,
577,
578,
579,
580,
581,
582,
583,
584,
585,
586,
587,
588,
589,
590,
591,
592,
593,
594,
595,
596,
597,
598,
599,
600,
601,
602,
603,
604,
605,
606,
607,
608,
609,
610,
611,
612,
613,
614,
615,
616,
617,
618,
619,
620,
621,
622,
623,
624,
625,
626,
627,
628,
629,
630,
631,
632,
633,
634,
635,
636,
637,
638,
639,
640,
641,
642,
643,
644,
645,
646,
647,
648,
649,
650,
651,
652,
653,
654,
655,
656,
657,
658,
659,
660,
661,
662,
663,
664,
665,
666,
667,
668,
669,
670,
671,
672,
673,
674,
675,
676,
677,
678,
679,
680,
681,
682,
683,
684,
685,
686,
687,
688,
689,
690,
691,
692,
693,
694,
695,
696,
697,
698,
699,
700,
701,
702,
703,
704,
705,
706,
707,
708,
709,
710,
711,
712,
713,
714,
715,
716,
717,
718,
719,
720,
721,
722,
723,
724,
725,
726,
727,
728,
729,
730,
731,
732,
733,
734,
735,
736,
737,
738,
739,
740,
741,
742,
743,
744,
745,
746,
747,
748,
749,
750,
751,
752,
753,
754,
755,
756,
757,
758,
759,
760,
761,
762,
763,
764,
765,
766,
767,
768,
769,
770,
771,
772,
773,
774,
775,
776,
777,
778,
779,
780,
781,
782,
783,
784,
785,
786,
787,
788,
789,
790,
791,
792,
793,
794,
795,
796,
797,
798,
799,
800,
801,
802,
803,
804,
805,
806,
807,
808,
809,
810,
811,
812,
813,
814,
815,
816,
817,
818,
819,
820,
821,
822,
823,
824,
825,
826,
827,
828,
829,
830,
831,
832,
833,
834,
835,
836,
837,
838,
839,
840,
841,
842,
843,
844,
845,
846,
847,
848,
849,
850,
851,
852,
853,
854,
855,
856,
857,
858,
859,
860,
861,
862,
863,
864,
865,
866,
867,
868,
869,
870,
871,
872,
873,
874,
875,
876,
877,
878,
879,
880,
881,
882,
883,
884,
885,
886,
887,
888,
889,
890,
891,
892,
893,
894,
895,
896,
897,
898,
899,
900,
901,
902,
903,
904,
905,
906,
907,
908,
909,
910,
911,
912,
913,
914,
915,
916,
917,
918,
919,
920,
921,
922,
923,
924,
925,
926,
927,
928,
929,
930,
931,
932,
933,
934,
935,
936,
937,
938,
939,
940,
941,
942,
943,
944,
945,
946,
947,
948,
949,
950,
951,
952,
953,
954,
955,
956,
957,
958,
959,
960,
961,
962,
963,
964,
965,
966,
967,
968,
969,
970,
971,
972,
973,
974,
975,
976,
977,
978,
979,
980,
981,
982,
983,
984,
985,
986,
987,
988,
989,
990,
991,
992,
993,
994,
995,
996,
997,
998,
999,
1000,
1001,
1002,
1003,
1004,
1005,
1006,
1007,
1008,
1009,
1010,
1011,
1012,
1013,
1014,
1015,
1016,
1017,
1018,
1019,
1020,
1021,
1022,
1023,
1024,
1025,
1026,
1027,
1028,
1029,
1030,
1031,
1032,
1033,
1034,
1035,
1036,
1037,
1038,
1039,
1040,
1041,
1042,
1043,
1044,
1045,
1046,
1047,
1048,
1049,
1050,
1051,
1052,
1053,
1054,
1055,
1056,
1057,
1058,
1059,
1060,
1061,
1062,
1063,
1064,
1065,
1066,
1067,
1068,
1069,
1070,
1071,
1072,
1073,
1074,
1075,
1076,
1077,
1078,
1079,
1080,
1081,
1082,
1083,
1084,
1085,
1086,
1087,
1088,
1089,
1090,
1091,
1092,
1093,
1094,
1095,
1096,
1097,
1098,
1099,
1100,
1101,
1102,
1103,
1104,
1105,
1106,
1107,
1108,
1109,
1110,
1111,
1112,
1113,
1114,
1115,
1116,
1117,
1118,
1119,
1120,
1121,
1122,
1123,
1124,
1125,
1126,
1127,
1128,
1129,
1130,
1131,
1132,
1133,
1134,
1135,
1136,
1137,
1138,
1139,
1140,
1141,
1142,
1143,
1144,
1145,
1146,
1147,
1148,
1149,
1150,
1151,
1152,
1153,
1154,
1155,
1156,
1157,
1158,
1159,
1160,
1161,
1162,
1163,
1164,
1165,
1166,
1167,
1168,
1169,
1170,
1171,
1172,
1173,
1174,
1175,
1176,
1177,
1178,
1179,
1180,
1181,
1182,
1183,
1184,
1185,
1186,
1187,
1188,
1189,
1190,
1191,
1192,
1193,
1194,
1195,
1196,
1197,
1198,
1199,
1200,
1201,
1202,
1203,
1204,
1205,
1206,
1207,
1208,
1209,
1210,
1211,
1212,
1213,
1214,
1215,
1216,
1217,
1218,
1219,
1220,
1221,
1222,
1223,
1224,
1225,
1226,
1227,
1228,
1229,
1230,
1231,
1232,
1233,
1234,
1235,
1236,
1237,
1238,
1239,
1240,
1241,
1242,
1243,
1244,
1245,
1246,
1247,
1248,
1249,
1250,
1251,
1252,
1253,
1254,
1255,
1256,
1257,
1258,
1259,
1260,
1261,
1262,
1263,
1264,
1265,
1266,
1267,
1268,
1269,
1270,
1271,
1272,
1273,
1274,
1275,
1276,
1277,
1278,
1279,
1280,
1281,
1282,
1283,
1284,
1285,
1286,
1287,
1288,
1289,
1290,
1291,
1292,
1293,
1294,
1295,
1296,
1297,
1298,
1299,
1300,
1301,
1302,
1303,
1304,
1305,
1306,
1307,
1308,
1309,
1310,
1311,
1312,
1313,
1314,
1315,
1316,
1317,
1318,
1319,
1320,
1321,
1322,
1323,
1324,
1325,
1326,
1327,
1328,
1329,
1330,
1331,
1332,
1333,
1334,
1335,
1336,
1337,
1338,
1339,
1340,
1341,
1342,
1343,
1344,
1345,
1346,
1347,
1348,
1349,
1350,
1351,
1352,
1353,
1354,
1355,
1356,
1357,
1358,
1359,
1360,
1361,
1362,
1363,
1364,
1365,
1366,
1367,
1368,
1369,
1370,
1371,
1372,
1373,
1374,
1375,
1376,
1377,
1378,
1379,
1380,
1381,
1382,
1383,
1384,
1385,
1386,
1387,
1388,
1389,
1390,
1391,
1392,
1393,
1394,
1395,
1396,
1397,
1398,
1399,
1400,
1401,
1402,
1403,
1404,
1405,
1406,
1407,
1408,
1409,
1410,
1411,
1412,
1413,
1414,
1415,
1416,
1417,
1418,
1419,
1420,
1421,
1422,
1423,
1424,
1425,
1426,
1427,
1428,
1429,
1430,
1431,
1432,
1433,
1434,
1435,
1436,
1437,
1438,
1439,
1440,
1441,
1442,
1443,
1444,
1445,
1446,
1447,
1448,
1449,
1450,
1451,
1452,
1453,
1454,
1455,
1456,
1457,
1458,
1459,
1460,
1461,
1462,
1463,
1464,
1465,
1466,
1467,
1468,
1469,
1470,
1471,
1472,
1473,
1474,
1475,
1476,
1477,
1478,
1479,
1480,
1481,
1482,
1483,
1484,
1485,
1486,
1487,
1488,
1489,
1490,
1491,
1492,
1493,
1494,
1495,
1496,
1497,
1498,
1499,
1500,
1501,
1502,
1503,
1504,
1505,
1506,
1507,
1508,
1509,
1510,
1511,
1512,
1513,
1514,
1515,
1516,
1517,
1518,
1519,
1520,
1521,
1522,
1523,
1524,
1525,
1526,
1527,
1528,
1529,
1530,
1531,
1532,
1533,
1534,
1535,
1536,
1537,
1538,
1539,
1540,
1541,
1542,
1543,
1544,
1545,
1546,
1547,
1548,
1549,
1550,
1551,
1552,
1553,
1554,
1555,
1556,
1557,
1558,
1559,
1560,
1561,
1562,
1563,
1564,
1565,
1566,
1567,
1568,
1569,
1570,
1571,
1572,
1573,
1574,
1575,
1576,
1577,
1578,
1579,
1580,
1581,
1582,
1583,
1584,
1585,
1586,
1587,
1588,
1589,
1590,
1591,
1592,
1593,
1594,
1595,
1596,
1597,
1598,
1599,
1600,
1601,
1602,
1603,
1604,
1605,
1606,
1607,
1608,
1609,
1610,
1611,
1612,
1613,
1614,
1615,
1616,
1617,
1618,
1619,
1620,
1621,
1622,
1623,
1624,
1625,
1626,
1627,
1628,
1629,
1630,
1631,
1632,
1633,
1634,
1635,
1636,
1637,
1638,
1639,
1640,
1641,
1642,
1643,
1644,
1645,
1646,
1647,
1648,
1649,
1650,
1651,
1652,
1653,
1654,
1655,
1656,
1657,
1658,
1659,
1660,
1661,
1662,
1663,
1664,
1665,
1666,
1667,
1668,
1669,
1670,
1671,
1672,
1673,
1674,
1675,
1676,
1677,
1678,
1679,
1680,
1681,
1682,
1683,
1684,
1685,
1686,
1687,
1688,
1689,
1690,
1691,
1692,
1693,
1694,
1695,
1696,
1697,
1698,
1699,
1700,
1701,
1702,
1703,
1704,
1705,
1706,
1707,
1708,
1709,
1710,
1711,
1712,
1713,
1714,
1715,
1716,
1717,
1718,
1719,
1720,
1721,
1722,
1723,
1724,
1725,
1726,
1727,
1728,
1729,
1730,
1731,
1732,
1733,
1734,
1735,
1736,
1737,
1738,
1739,
1740,
1741,
1742,
1743,
1744,
1745,
1746,
1747,
1748,
1749,
1750,
1751,
1752,
1753,
1754,
1755,
1756,
1757,
1758,
1759,
1760,
1761,
1762,
1763,
1764,
1765,
1766,
1767,
1768,
1769,
1770,
1771,
1772,
1773,
1774,
1775,
1776,
1777,
1778,
1779,
1780,
1781,
1782,
1783,
1784,
1785,
1786,
1787,
1788,
1789,
1790,
1791,
1792,
1793,
1794,
1795,
1796,
1797,
1798,
1799,
1800,
1801,
1802,
1803,
1804,
1805,
1806,
1807,
1808,
1809,
1810,
1811,
1812,
1813,
1814,
1815,
1816,
1817,
1818,
1819,
1820,
1821,
1822,
1823,
1824,
1825,
1826,
1827,
1828,
1829,
1830,
1831,
1832,
1833,
1834,
1835,
1836,
1837,
1838,
1839,
1840,
1841,
1842,
1843,
1844,
1845,
1846,
1847,
1848,
1849,
1850,
1851,
1852,
1853,
1854,
1855,
1856,
1857,
1858,
1859,
1860,
1861,
1862,
1863,
1864,
1865,
1866,
1867,
1868,
1869,
1870,
1871,
1872,
1873,
1874,
1875,
1876,
1877,
1878,
1879,
1880,
1881,
1882,
1883,
1884,
1885,
1886,
1887,
1888,
1889,
1890,
1891,
1892,
1893,
1894,
1895,
1896,
1897,
1898,
1899,
1900,
1901,
1902,
1903,
1904,
1905,
1906,
1907,
1908,
1909,
1910,
1911,
1912,
1913,
1914,
1915,
1916,
1917,
1918,
1919,
1920,
1921,
1922,
1923,
1924,
1925,
1926,
1927,
1928,
1929,
1930,
1931,
1932,
1933,
1934,
1935,
1936,
1937,
1938,
1939,
1940,
1941,
1942,
1943,
1944,
1945,
1946,
1947,
1948,
1949,
1950,
1951,
1952,
1953,
1954,
1955,
1956,
1957,
1958,
1959,
1960,
1961,
1962,
1963,
1964,
1965,
1966,
1967,
1968,
1969,
1970,
1971,
1972,
1973,
1974,
1975,
1976,
1977,
1978,
1979,
1980,
1981,
1982,
1983,
1984,
1985,
1986,
1987,
1988,
1989,
1990,
1991,
1992,
1993,
1994,
1995,
1996,
1997,
1998,
1999,
2000,
2001,
2002,
2003,
2004,
2005,
2006,
2007,
2008,
2009,
2010,
2011,
2012,
2013,
2014,
2015,
2016,
2017,
2018,
2019,
2020,
2021,
2022,
2023,
2024,
2025,
2026,
2027,
2028,
2029,
2030,
2031,
2032,
2033,
2034,
2035,
2036,
2037,
2038,
2039,
2040,
2041,
2042,
2043,
2044,
2045,
2046,
2047,
2048,
2049,
2050,
2051,
2052,
2053,
2054,
2055,
2056,
2057,
2058,
2059,
2060,
2061,
2062,
2063,
2064,
2065,
2066,
2067,
2068,
2069,
2070,
2071,
2072,
2073,
2074,
2075,
2076,
2077,
2078,
2079,
2080,
2081,
2082,
2083,
2084,
2085,
2086,
2087,
2088,
2089,
2090,
2091,
2092,
2093,
2094,
2095,
2096,
2097,
2098,
2099,
2100,
2101,
2102,
2103,
2104,
2105,
2106,
2107,
2108,
2109,
2110,
2111,
2112,
2113,
2114,
2115,
2116,
2117,
2118,
2119,
2120,
2121,
2122,
2123,
2124,
2125,
2126,
2127,
2128,
2129,
2130,
2131,
2132,
2133,
2134,
2135,
2136,
2137,
2138,
2139,
2140,
2141,
2142,
2143,
2144,
2145,
2146,
2147,
2148,
2149,
2150,
2151,
2152,
2153,
2154,
2155,
2156,
2157,
2158,
2159,
2160,
2161,
2162,
2163,
2164,
2165,
2166,
2167,
2168,
2169,
2170,
2171,
2172,
2173,
2174,
2175,
2176,
2177,
2178,
2179,
2180,
2181,
2182,
2183,
2184,
2185,
2186,
2187,
2188,
2189,
2190,
2191,
2192,
2193,
2194,
2195,
2196,
2197,
2198,
2199,
2200,
2201,
2202,
2203,
2204,
2205,
2206,
2207,
2208,
2209,
2210,
2211,
2212,
2213,
2214,
2215,
2216,
2217,
2218,
2219,
2220,
2221,
2222,
2223,
2224,
2225,
2226,
2227,
2228,
2229,
2230,
2231,
2232,
2233,
2234,
2235,
2236,
2237,
2238,
2239,
2240,
2241,
2242,
2243,
2244,
2245,
2246,
2247,
2248,
2249,
2250,
2251,
2252,
2253,
2254,
2255,
2256,
2257,
2258,
2259,
2260,
2261,
2262,
2263,
2264,
2265,
2266,
2267,
2268,
2269,
2270,
2271,
2272,
2273,
2274,
2275,
2276,
2277,
2278,
2279,
2280,
2281,
2282,
2283,
2284,
2285,
2286,
2287,
2288,
2289,
2290,
2291,
2292,
2293,
2294,
2295,
2296,
2297,
2298,
2299,
2300,
2301,
2302,
2303,
2304,
2305,
2306,
2307,
2308,
2309,
2310,
2311,
2312,
2313,
2314,
2315,
2316,
2317,
2318,
2319,
2320,
2321,
2322,
2323,
2324,
2325,
2326,
2327,
2328,
2329,
2330,
2331,
2332,
2333,
2334,
2335,
2336,
2337,
2338,
2339,
2340,
2341,
2342,
2343,
2344,
2345,
2346,
2347,
2348,
2349,
2350,
2351,
2352,
2353,
2354,
2355,
2356,
2357,
2358,
2359,
2360,
2361,
2362,
2363,
2364,
2365,
2366,
2367,
2368,
2369,
2370,
2371,
2372,
2373,
2374,
2375,
2376,
2377,
2378,
2379,
2380,
2381,
2382,
2383,
2384,
2385,
2386,
2387,
2388,
2389,
2390,
2391,
2392,
2393,
2394,
2395,
2396,
2397,
2398,
2399,
2400,
2401,
2402,
2403,
2404,
2405,
2406,
2407,
2408,
2409,
2410,
2411,
2412,
2413,
2414,
2415,
2416,
2417,
2418,
2419,
2420,
2421,
2422,
2423,
2424,
2425,
2426,
2427,
2428,
2429,
2430,
2431,
2432,
2433,
2434,
2435,
2436,
2437,
2438,
2439,
2440,
2441,
2442,
2443,
2444,
2445,
2446,
2447,
2448,
2449,
2450,
2451,
2452,
2453,
2454,
2455,
2456,
2457,
2458,
2459,
2460,
2461,
2462,
2463,
2464,
2465,
2466,
2467,
2468,
2469,
2470,
2471,
2472,
2473,
2474,
2475,
2476,
2477,
2478,
2479,
2480,
2481,
2482,
2483,
2484,
2485,
2486,
2487,
2488,
2489,
2490,
2491,
2492,
2493,
2494,
2495,
2496,
2497,
2498,
2499,
2500,
2501,
2502,
2503,
2504,
2505,
2506,
2507,
2508,
2509,
2510,
2511,
2512,
2513,
2514,
2515,
2516,
2517,
2518,
2519,
2520,
2521,
2522,
2523,
2524,
2525,
2526,
2527,
2528,
2529,
2530,
2531,
2532,
2533,
2534,
2535,
2536,
2537,
2538,
2539,
2540,
2541,
2542,
2543,
2544,
2545,
2546,
2547,
2548,
2549,
2550,
2551,
2552,
2553,
2554,
2555,
2556,
2557,
2558,
2559,
2560,
2561,
2562,
2563,
2564,
2565,
2566,
2567,
2568,
2569,
2570,
2571,
2572,
2573,
2574,
2575,
2576,
2577,
2578,
2579,
2580,
2581,
2582,
2583,
2584,
2585,
2586,
2587,
2588,
2589,
2590,
2591,
2592,
2593,
2594,
2595,
2596,
2597,
2598,
2599,
2600,
2601,
2602,
2603,
2604,
2605,
2606,
2607,
2608,
2609,
2610,
2611,
2612,
2613,
2614,
2615,
2616,
2617,
2618,
2619,
2620,
2621,
2622,
2623,
2624,
2625,
2626,
2627,
2628,
2629,
2630,
2631,
2632,
2633,
2634,
2635,
2636,
2637,
2638,
2639,
2640,
2641,
2642,
2643,
2644,
2645,
2646,
2647,
2648,
2649,
2650,
2651,
2652,
2653,
2654,
2655,
2656,
2657,
2658,
2659,
2660,
2661,
2662,
2663,
2664,
2665,
2666,
2667,
2668,
2669,
2670,
2671,
2672,
2673,
2674,
2675,
2676,
2677,
2678,
2679,
2680,
2681,
2682,
2683,
2684,
2685,
2686,
2687,
2688,
2689,
2690,
2691,
2692,
2693,
2694,
2695,
2696,
2697,
2698,
2699,
2700,
2701,
2702,
2703,
2704,
2705,
2706,
2707,
2708,
2709,
2710,
2711,
2712,
2713,
2714,
2715,
2716,
2717,
2718,
2719,
2720,
2721,
2722,
2723,
2724,
2725,
2726,
2727,
2728,
2729,
2730,
2731,
2732,
2733,
2734,
2735,
2736,
2737,
2738,
2739,
2740,
2741,
2742,
2743,
2744,
2745,
2746,
2747,
2748,
2749,
2750,
2751,
2752,
2753,
2754,
2755,
2756,
2757,
2758,
2759,
2760,
2761,
2762,
2763,
2764,
2765,
2766,
2767,
2768,
2769,
2770,
2771,
2772,
2773,
2774,
2775,
2776,
2777,
2778,
2779,
2780,
2781,
2782,
2783,
2784,
2785,
2786,
2787,
2788,
2789,
2790,
2791,
2792,
2793,
2794,
2795,
2796,
2797,
2798,
2799,
2800,
2801,
2802,
2803,
2804,
2805,
2806,
2807,
2808,
2809,
2810,
2811,
2812,
2813,
2814,
2815,
2816,
2817,
2818,
2819,
2820,
2821,
2822,
2823,
2824,
2825,
2826,
2827,
2828,
2829,
2830,
2831,
2832,
2833,
2834,
2835,
2836,
2837,
2838,
2839,
2840,
2841,
2842,
2843,
2844,
2845,
2846,
2847,
2848,
2849,
2850,
2851,
2852,
2853,
2854,
2855,
2856,
2857,
2858,
2859,
2860,
2861,
2862,
2863,
2864,
2865,
2866,
2867,
2868,
2869,
2870,
2871,
2872,
2873,
2874,
2875,
2876,
2877,
2878,
2879,
2880,
2881,
2882,
2883,
2884,
2885,
2886,
2887,
2888,
2889,
2890,
2891,
2892,
2893,
2894,
2895,
2896,
2897,
2898,
2899,
2900,
2901,
2902,
2903,
2904,
2905,
2906,
2907,
2908,
2909,
2910,
2911,
2912,
2913,
2914,
2915,
2916,
2917,
2918,
2919,
2920,
2921,
2922,
2923,
2924,
2925,
2926,
2927,
2928,
2929,
2930,
2931,
2932,
2933,
2934,
2935,
2936,
2937,
2938,
2939,
2940,
2941,
2942,
2943,
2944,
2945,
2946,
2947,
2948,
2949,
2950,
2951,
2952,
2953,
2954,
2955,
2956,
2957,
2958,
2959,
2960,
2961,
2962,
2963,
2964,
2965,
2966,
2967,
2968,
2969,
2970,
2971,
2972,
2973,
2974,
2975,
2976,
2977,
2978,
2979,
2980,
2981,
2982,
2983,
2984,
2985,
2986,
2987,
2988,
2989,
2990,
2991,
2992,
2993,
2994,
2995,
2996,
2997,
2998,
2999,
3000,
3001,
3002,
3003,
3004,
3005,
3006,
3007,
3008,
3009,
3010,
3011,
3012,
3013,
3014,
3015,
3016,
3017,
3018,
3019,
3020,
3021,
3022,
3023,
3024,
3025,
3026,
3027,
3028,
3029,
3030,
3031,
3032,
3033,
3034,
3035,
3036,
3037,
3038,
3039,
3040,
3041,
3042,
3043,
3044,
3045,
3046,
3047,
3048,
3049,
3050,
3051,
3052,
3053,
3054,
3055,
3056,
3057,
3058,
3059,
3060,
3061,
3062,
3063,
3064,
3065,
3066,
3067,
3068,
3069,
3070,
3071,
3072,
3073,
3074,
3075,
3076,
3077,
3078,
3079,
3080,
3081,
3082,
3083,
3084,
3085,
3086,
3087,
3088,
3089,
3090,
3091,
3092,
3093,
3094,
3095,
3096,
3097,
3098,
3099,
3100,
3101,
3102,
3103,
3104,
3105,
3106,
3107,
3108,
3109,
3110,
3111,
3112,
3113,
3114,
3115,
3116,
3117,
3118,
3119,
3120,
3121,
3122,
3123,
3124,
3125,
3126,
3127,
3128,
3129,
3130,
3131,
3132,
3133,
3134,
3135,
3136,
3137,
3138,
3139,
3140,
3141,
3142,
3143,
3144,
3145,
3146,
3147,
3148,
3149,
3150,
3151,
3152,
3153,
3154,
3155,
3156,
3157,
3158,
3159,
3160,
3161,
3162,
3163,
3164,
3165,
3166,
3167,
3168,
3169,
3170,
3171,
3172,
3173,
3174,
3175,
3176,
3177,
3178,
3179,
3180,
3181,
3182,
3183,
3184,
3185,
3186,
3187,
3188,
3189,
3190,
3191,
3192,
3193,
3194,
3195,
3196,
3197,
3198,
3199,
3200,
3201,
3202,
3203,
3204,
3205,
3206,
3207,
3208,
3209,
3210,
3211,
3212,
3213,
3214,
3215,
3216,
3217,
3218,
3219,
3220,
3221,
3222,
3223,
3224,
3225,
3226,
3227,
3228,
3229,
3230,
3231,
3232,
3233,
3234,
3235,
3236,
3237,
3238,
3239,
3240,
3241,
3242,
3243,
3244,
3245,
3246,
3247,
3248,
3249,
3250,
3251,
3252,
3253,
3254,
3255,
3256,
3257,
3258,
3259,
3260,
3261,
3262,
3263,
3264,
3265,
3266,
3267,
3268,
3269,
3270,
3271,
3272,
3273,
3274,
3275,
3276,
3277,
3278,
3279,
3280,
3281,
3282,
3283,
3284,
3285,
3286,
3287,
3288,
3289,
3290,
3291,
3292,
3293,
3294,
3295,
3296,
3297,
3298,
3299,
3300,
3301,
3302,
3303,
3304,
3305,
3306,
3307,
3308,
3309,
3310,
3311,
3312,
3313,
3314,
3315,
3316,
3317,
3318,
3319,
3320,
3321,
3322,
3323,
3324,
3325,
3326,
3327,
3328,
3329,
3330,
3331,
3332,
3333,
3334,
3335,
3336,
3337,
3338,
3339,
3340,
3341,
3342,
3343,
3344,
3345,
3346,
3347,
3348,
3349,
3350,
3351,
3352,
3353,
3354,
3355,
3356,
3357,
3358,
3359,
3360,
3361,
3362,
3363,
3364,
3365,
3366,
3367,
3368,
3369,
3370,
3371,
3372,
3373,
3374,
3375,
3376,
3377,
3378,
3379,
3380,
3381,
3382,
3383,
3384,
3385,
3386,
3387,
3388,
3389,
3390,
3391,
3392,
3393,
3394,
3395,
3396,
3397,
3398,
3399,
3400,
3401,
3402,
3403,
3404,
3405,
3406,
3407,
3408,
3409,
3410,
3411,
3412,
3413,
3414,
3415,
3416,
3417,
3418,
3419,
3420,
3421,
3422,
3423,
3424,
3425,
3426,
3427,
3428,
3429,
3430,
3431,
3432,
3433,
3434,
3435,
3436,
3437,
3438,
3439,
3440,
3441,
3442,
3443,
3444,
3445,
3446,
3447,
3448,
3449,
3450,
3451,
3452,
3453,
3454,
3455,
3456,
3457,
3458,
3459,
3460,
3461,
3462,
3463,
3464,
3465,
3466,
3467,
3468,
3469,
3470,
3471,
3472,
3473,
3474,
3475,
3476,
3477,
3478,
3479,
3480,
3481,
3482,
3483,
3484,
3485,
3486,
3487,
3488,
3489,
3490,
3491,
3492,
3493,
3494,
3495,
3496,
3497,
3498,
3499,
3500,
3501,
3502,
3503,
3504,
3505,
3506,
3507,
3508,
3509,
3510,
3511,
3512,
3513,
3514,
3515,
3516,
3517,
3518,
3519,
3520,
3521,
3522,
3523,
3524,
3525,
3526,
3527,
3528,
3529,
3530,
3531,
3532,
3533,
3534,
3535,
3536,
3537,
3538,
3539,
3540,
3541,
3542,
3543,
3544,
3545,
3546,
3547,
3548,
3549,
3550,
3551,
3552,
3553,
3554,
3555,
3556,
3557,
3558,
3559,
3560,
3561,
3562,
3563,
3564,
3565,
3566,
3567,
3568,
3569,
3570,
3571,
3572,
3573,
3574,
3575,
3576,
3577,
3578,
3579,
3580,
3581,
3582,
3583,
3584,
3585,
3586,
3587,
3588,
3589,
3590,
3591,
3592,
3593,
3594,
3595,
3596,
3597,
3598,
3599,
3600,
3601,
3602,
3603,
3604,
3605,
3606,
3607,
3608,
3609,
3610,
3611,
3612,
3613,
3614,
3615,
3616,
3617,
3618,
3619,
3620,
3621,
3622,
3623,
3624,
3625,
3626,
3627,
3628,
3629,
3630,
3631,
3632,
3633,
3634,
3635,
3636,
3637,
3638,
3639,
3640,
3641,
3642,
3643,
3644,
3645,
3646,
3647,
3648,
3649,
3650,
3651,
3652,
3653,
3654,
3655,
3656,
3657,
3658,
3659,
3660,
3661,
3662,
3663,
3664,
3665,
3666,
3667,
3668,
3669,
3670,
3671,
3672,
3673,
3674,
3675,
3676,
3677,
3678,
3679,
3680,
3681,
3682,
3683,
3684,
3685,
3686,
3687,
3688,
3689,
3690,
3691,
3692,
3693,
3694,
3695,
3696,
3697,
3698,
3699,
3700,
3701,
3702,
3703,
3704,
3705,
3706,
3707,
3708,
3709,
3710,
3711,
3712,
3713,
3714,
3715,
3716,
3717,
3718,
3719,
3720,
3721,
3722,
3723,
3724,
3725,
3726,
3727,
3728,
3729,
3730,
3731,
3732,
3733,
3734,
3735,
3736,
3737,
3738,
3739,
3740,
3741,
3742,
3743,
3744,
3745,
3746,
3747,
3748,
3749,
3750,
3751,
3752,
3753,
3754,
3755,
3756,
3757,
3758,
3759,
3760,
3761,
3762,
3763,
3764,
3765,
3766,
3767,
3768,
3769,
3770,
3771,
3772,
3773,
3774,
3775,
3776,
3777,
3778,
3779,
3780,
3781,
3782,
3783,
3784,
3785,
3786,
3787,
3788,
3789,
3790,
3791,
3792,
3793,
3794,
3795,
3796,
3797,
3798,
3799,
3800,
3801,
3802,
3803,
3804,
3805,
3806,
3807,
3808,
3809,
3810,
3811,
3812,
3813,
3814,
3815,
3816,
3817,
3818,
3819,
3820,
3821,
3822,
3823,
3824,
3825,
3826,
3827,
3828,
3829,
3830,
3831,
3832,
3833,
3834,
3835,
3836,
3837,
3838,
3839,
3840,
3841,
3842,
3843,
3844,
3845,
3846,
3847,
3848,
3849,
3850,
3851,
3852,
3853,
3854,
3855,
3856,
3857,
3858,
3859,
3860,
3861,
3862,
3863,
3864,
3865,
3866,
3867,
3868,
3869,
3870,
3871,
3872,
3873,
3874,
3875,
3876,
3877,
3878,
3879,
3880,
3881,
3882,
3883,
3884,
3885,
3886,
3887,
3888,
3889,
3890,
3891,
3892,
3893,
3894,
3895,
3896,
3897,
3898,
3899,
3900,
3901,
3902,
3903,
3904,
3905,
3906,
3907,
3908,
3909,
3910,
3911,
3912,
3913,
3914,
3915,
3916,
3917,
3918,
3919,
3920,
3921,
3922,
3923,
3924,
3925,
3926,
3927,
3928,
3929,
3930,
3931,
3932,
3933,
3934,
3935,
3936,
3937,
3938,
3939,
3940,
3941,
3942,
3943,
3944,
3945,
3946,
3947,
3948,
3949,
3950,
3951,
3952,
3953,
3954,
3955,
3956,
3957,
3958,
3959,
3960,
3961,
3962,
3963,
3964,
3965,
3966,
3967,
3968,
3969,
3970,
3971,
3972,
3973,
3974,
3975,
3976,
3977,
3978,
3979,
3980,
3981,
3982,
3983,
3984,
3985,
3986,
3987,
3988,
3989,
3990,
3991,
3992,
3993,
3994,
3995,
3996,
3997,
3998,
3999,
4000,
4001,
4002,
4003,
4004,
4005,
4006,
4007,
4008,
4009,
4010,
4011,
4012,
4013,
4014,
4015,
4016,
4017,
4018,
4019,
4020,
4021,
4022,
4023,
4024,
4025,
4026,
4027,
4028,
4029,
4030,
4031,
4032,
4033,
4034,
4035,
4036,
4037,
4038,
4039,
4040,
4041,
4042,
4043,
4044,
4045,
4046,
4047,
4048,
4049,
4050,
4051,
4052,
4053,
4054,
4055,
4056,
4057,
4058,
4059,
4060,
4061,
4062,
4063,
4064,
4065,
4066,
4067,
4068,
4069,
4070,
4071,
4072,
4073,
4074,
4075,
4076,
4077,
4078,
4079,
4080,
4081,
4082,
4083,
4084,
4085,
4086,
4087,
4088,
4089,
4090,
4091,
4092,
4093,
4094,
4095,
4096,
4097,
4098,
4099,
4100,
4101,
4102,
4103,
4104,
4105,
4106,
4107,
4108,
4109,
4110,
4111,
4112,
4113,
4114,
4115,
4116,
4117,
4118,
4119,
4120,
4121,
4122,
4123,
4124,
4125,
4126,
4127,
4128,
4129,
4130,
4131,
4132,
4133,
4134,
4135,
4136,
4137,
4138,
4139,
4140,
4141,
4142,
4143,
4144,
4145,
4146,
4147,
4148,
4149,
4150,
4151,
4152,
4153,
4154,
4155,
4156,
4157,
4158,
4159,
4160,
4161,
4162,
4163,
4164,
4165,
4166,
4167,
4168,
4169,
4170,
4171,
4172,
4173,
4174,
4175,
4176,
4177,
4178,
4179,
4180,
4181,
4182,
4183,
4184,
4185,
4186,
4187,
4188,
4189,
4190,
4191,
4192,
4193,
4194,
4195,
4196,
4197,
4198,
4199,
4200,
4201,
4202,
4203,
4204,
4205,
4206,
4207,
4208,
4209,
4210,
4211,
4212,
4213,
4214,
4215,
4216,
4217,
4218,
4219,
4220,
4221,
4222,
4223,
4224,
4225,
4226,
4227,
4228,
4229,
4230,
4231,
4232,
4233,
4234,
4235,
4236,
4237,
4238,
4239,
4240,
4241,
4242,
4243,
4244,
4245,
4246,
4247,
4248,
4249,
4250,
4251,
4252,
4253,
4254,
4255,
4256,
4257,
4258,
4259,
4260,
4261,
4262,
4263,
4264,
4265,
4266,
4267,
4268,
4269,
4270,
4271,
4272,
4273,
4274,
4275,
4276,
4277,
4278,
4279,
4280,
4281,
4282,
4283,
4284,
4285,
4286,
4287,
4288,
4289,
4290,
4291,
4292,
4293,
4294,
4295,
4296,
4297,
4298,
4299,
4300,
4301,
4302,
4303,
4304,
4305,
4306,
4307,
4308,
4309,
4310,
4311,
4312,
4313,
4314,
4315,
4316,
4317,
4318,
4319,
4320,
4321,
4322,
4323,
4324,
4325,
4326,
4327,
4328,
4329,
4330,
4331,
4332,
4333,
4334,
4335,
4336,
4337,
4338,
4339,
4340,
4341,
4342,
4343,
4344,
4345,
4346,
4347,
4348,
4349,
4350,
4351,
4352,
4353,
4354,
4355,
4356,
4357,
4358,
4359,
4360,
4361,
4362,
4363,
4364,
4365,
4366,
4367,
4368,
4369,
4370,
4371,
4372,
4373,
4374,
4375,
4376,
4377,
4378,
4379,
4380,
4381,
4382,
4383,
4384,
4385,
4386,
4387,
4388,
4389,
4390,
4391,
4392,
4393,
4394,
4395,
4396,
4397,
4398,
4399,
4400,
4401,
4402,
4403,
4404,
4405,
4406,
4407,
4408,
4409,
4410,
4411,
4412,
4413,
4414,
4415,
4416,
4417,
4418,
4419,
4420,
4421,
4422,
4423,
4424,
4425,
4426,
4427,
4428,
4429,
4430,
4431,
4432,
4433,
4434,
4435,
4436,
4437,
4438,
4439,
4440,
4441,
4442,
4443,
4444,
4445,
4446,
4447,
4448,
4449,
4450,
4451,
4452,
4453,
4454,
4455,
4456,
4457,
4458,
4459,
4460,
4461,
4462,
4463,
4464,
4465,
4466,
4467,
4468,
4469,
4470,
4471,
4472,
4473,
4474,
4475,
4476,
4477,
4478,
4479,
4480,
4481,
4482,
4483,
4484,
4485,
4486,
4487,
4488,
4489,
4490,
4491,
4492,
4493,
4494,
4495,
4496,
4497,
4498,
4499,
4500,
4501,
4502,
4503,
4504,
4505,
4506,
4507,
4508,
4509,
4510,
4511,
4512,
4513,
4514,
4515,
4516,
4517,
4518,
4519,
4520,
4521,
4522,
4523,
4524,
4525,
4526,
4527,
4528,
4529,
4530,
4531,
4532,
4533,
4534,
4535,
4536,
4537,
4538,
4539,
4540,
4541,
4542,
4543,
4544,
4545,
4546,
4547,
4548,
4549,
4550,
4551,
4552,
4553,
4554,
4555,
4556,
4557,
4558,
4559,
4560,
4561,
4562,
4563,
4564,
4565,
4566,
4567,
4568,
4569,
4570,
4571,
4572,
4573,
4574,
4575,
4576,
4577,
4578,
4579,
4580,
4581,
4582,
4583,
4584,
4585,
4586,
4587,
4588,
4589,
4590,
4591,
4592,
4593,
4594,
4595,
4596,
4597,
4598,
4599,
4600,
4601,
4602,
4603,
4604,
4605,
4606,
4607,
4608,
4609,
4610,
4611,
4612,
4613,
4614,
4615,
4616,
4617,
4618,
4619,
4620,
4621,
4622,
4623,
4624,
4625,
4626,
4627,
4628,
4629,
4630,
4631,
4632,
4633,
4634,
4635,
4636,
4637,
4638,
4639,
4640,
4641,
4642,
4643,
4644,
4645,
4646,
4647,
4648,
4649,
4650,
4651,
4652,
4653,
4654,
4655,
4656,
4657,
4658,
4659,
4660,
4661,
4662,
4663,
4664,
4665,
4666,
4667,
4668,
4669,
4670,
4671,
4672,
4673,
4674,
4675,
4676,
4677,
4678,
4679,
4680,
4681,
4682,
4683,
4684,
4685,
4686,
4687,
4688,
4689,
4690,
4691,
4692,
4693,
4694,
4695,
4696,
4697,
4698,
4699,
4700,
4701,
4702,
4703,
4704,
4705,
4706,
4707,
4708,
4709,
4710,
4711,
4712,
4713,
4714,
4715,
4716,
4717,
4718,
4719,
4720,
4721,
4722,
4723,
4724,
4725,
4726,
4727,
4728,
4729,
4730,
4731,
4732,
4733,
4734,
4735,
4736,
4737,
4738,
4739,
4740,
4741,
4742,
4743,
4744,
4745,
4746,
4747,
4748,
4749,
4750,
4751,
4752,
4753,
4754,
4755,
4756,
4757,
4758,
4759,
4760,
4761,
4762,
4763,
4764,
4765,
4766,
4767,
4768,
4769,
4770,
4771,
4772,
4773,
4774,
4775,
4776,
4777,
4778,
4779,
4780,
4781,
4782,
4783,
4784,
4785,
4786,
4787,
4788,
4789,
4790,
4791,
4792,
4793,
4794,
4795,
4796,
4797,
4798,
4799,
4800,
4801,
4802,
4803,
4804,
4805,
4806,
4807,
4808,
4809,
4810,
4811,
4812,
4813,
4814,
4815,
4816,
4817,
4818,
4819,
4820,
4821,
4822,
4823,
4824,
4825,
4826,
4827,
4828,
4829,
4830,
4831,
4832,
4833,
4834,
4835,
4836,
4837,
4838,
4839,
4840,
4841,
4842,
4843,
4844,
4845,
4846,
4847,
4848,
4849,
4850,
4851,
4852,
4853,
4854,
4855,
4856,
4857,
4858,
4859,
4860,
4861,
4862,
4863,
4864,
4865,
4866,
4867,
4868,
4869,
4870,
4871,
4872,
4873,
4874,
4875,
4876,
4877,
4878,
4879,
4880,
4881,
4882,
4883,
4884,
4885,
4886,
4887,
4888,
4889,
4890,
4891,
4892,
4893,
4894,
4895,
4896,
4897,
4898,
4899,
4900,
4901,
4902,
4903,
4904,
4905,
4906,
4907,
4908,
4909,
4910,
4911,
4912,
4913,
4914,
4915,
4916,
4917,
4918,
4919,
4920,
4921,
4922,
4923,
4924,
4925,
4926,
4927,
4928,
4929,
4930,
4931,
4932,
4933,
4934,
4935,
4936,
4937,
4938,
4939,
4940,
4941,
4942,
4943,
4944,
4945,
4946,
4947,
4948,
4949,
4950,
4951,
4952,
4953,
4954,
4955,
4956,
4957,
4958,
4959,
4960,
4961,
4962,
4963,
4964,
4965,
4966,
4967,
4968,
4969,
4970,
4971,
4972,
4973,
4974,
4975,
4976,
4977,
4978,
4979,
4980,
4981,
4982,
4983,
4984,
4985,
4986,
4987,
4988,
4989,
4990,
4991,
4992,
4993,
4994,
4995,
4996,
4997,
4998,
4999,
5000,
5001,
5002,
5003,
5004,
5005,
5006,
5007,
5008,
5009,
5010,
5011,
5012,
5013,
5014,
5015,
5016,
5017,
5018,
5019,
5020,
5021,
5022,
5023,
5024,
5025,
5026,
5027,
5028,
5029,
5030,
5031,
5032,
5033,
5034,
5035,
5036,
5037,
5038,
5039,
5040,
5041,
5042,
5043,
5044,
5045,
5046,
5047,
5048,
5049,
5050,
5051,
5052,
5053,
5054,
5055,
5056,
5057,
5058,
5059,
5060,
5061,
5062,
5063,
5064,
5065,
5066,
5067,
5068,
5069,
5070,
5071,
5072,
5073,
5074,
5075,
5076,
5077,
5078,
5079,
5080,
5081,
5082,
5083,
5084,
5085,
5086,
5087,
5088,
5089,
5090,
5091,
5092,
5093,
5094,
5095,
5096,
5097,
5098,
5099,
5100,
5101,
5102,
5103,
5104,
5105,
5106,
5107,
5108,
5109,
5110,
5111,
5112,
5113,
5114,
5115,
5116,
5117,
5118,
5119,
5120,
5121,
5122,
5123,
5124,
5125,
5126,
5127,
5128,
5129,
5130,
5131,
5132,
5133,
5134,
5135,
5136,
5137,
5138,
5139,
5140,
5141,
5142,
5143,
5144,
5145,
5146,
5147,
5148,
5149,
5150,
5151,
5152,
5153,
5154,
5155,
5156,
5157,
5158,
5159,
5160,
5161,
5162,
5163,
5164,
5165,
5166,
5167,
5168,
5169,
5170,
5171,
5172,
5173,
5174,
5175,
5176,
5177,
5178,
5179,
5180,
5181,
5182,
5183,
5184,
5185,
5186,
5187,
5188,
5189,
5190,
5191,
5192,
5193,
5194,
5195,
5196,
5197,
5198,
5199,
5200,
5201,
5202,
5203,
5204,
5205,
5206,
5207,
5208,
5209,
5210,
5211,
5212,
5213,
5214,
5215,
5216,
5217,
5218,
5219,
5220,
5221,
5222,
5223,
5224,
5225,
5226,
5227,
5228,
5229,
5230,
5231,
5232,
5233,
5234,
5235,
5236,
5237,
5238,
5239,
5240,
5241,
5242,
5243,
5244,
5245,
5246,
5247,
5248,
5249,
5250,
5251,
5252,
5253,
5254,
5255,
5256,
5257,
5258,
5259,
5260,
5261,
5262,
5263,
5264,
5265,
5266,
5267,
5268,
5269,
5270,
5271,
5272,
5273,
5274,
5275,
5276,
5277,
5278,
5279,
5280,
5281,
5282,
5283,
5284,
5285,
5286,
5287,
5288,
5289,
5290,
5291,
5292,
5293,
5294,
5295,
5296,
5297,
5298,
5299,
5300,
5301,
5302,
5303,
5304,
5305,
5306,
5307,
5308,
5309,
5310,
5311,
5312,
5313,
5314,
5315,
5316,
5317,
5318,
5319,
5320,
5321,
5322,
5323,
5324,
5325,
5326,
5327,
5328,
5329,
5330,
5331,
5332,
5333,
5334,
5335,
5336,
5337,
5338,
5339,
5340,
5341,
5342,
5343,
5344,
5345,
5346,
5347,
5348,
5349,
5350,
5351,
5352,
5353,
5354,
5355,
5356,
5357,
5358,
5359,
5360,
5361,
5362,
5363,
5364,
5365,
5366,
5367,
5368,
5369,
5370,
5371,
5372,
5373,
5374,
5375,
5376,
5377,
5378,
5379,
5380,
5381,
5382,
5383,
5384,
5385,
5386,
5387,
5388,
5389,
5390,
5391,
5392,
5393,
5394,
5395,
5396,
5397,
5398,
5399,
5400,
5401,
5402,
5403,
5404,
5405,
5406,
5407,
5408,
5409,
5410,
5411,
5412,
5413,
5414,
5415,
5416,
5417,
5418,
5419,
5420,
5421,
5422,
5423,
5424,
5425,
5426,
5427,
5428,
5429,
5430,
5431,
5432,
5433,
5434,
5435,
5436,
5437,
5438,
5439,
5440,
5441,
5442,
5443,
5444,
5445,
5446,
5447,
5448,
5449,
5450,
5451,
5452,
5453,
5454,
5455,
5456,
5457,
5458,
5459,
5460,
5461,
5462,
5463,
5464,
5465,
5466,
5467,
5468,
5469,
5470,
5471,
5472,
5473,
5474,
5475,
5476,
5477,
5478,
5479,
5480,
5481,
5482,
5483,
5484,
5485,
5486,
5487,
5488,
5489,
5490,
5491,
5492,
5493,
5494,
5495,
5496,
5497,
5498,
5499,
5500,
5501,
5502,
5503,
5504,
5505,
5506,
5507,
5508,
5509,
5510,
5511,
5512,
5513,
5514,
5515,
5516,
5517,
5518,
5519,
5520,
5521,
5522,
5523,
5524,
5525,
5526,
5527,
5528,
5529,
5530,
5531,
5532,
5533,
5534,
5535,
5536,
5537,
5538,
5539,
5540,
5541,
5542,
5543,
5544,
5545,
5546,
5547,
5548,
5549,
5550,
5551,
5552,
5553,
5554,
5555,
5556,
5557,
5558,
5559,
5560,
5561,
5562,
5563,
5564,
5565,
5566,
5567,
5568,
5569,
5570,
5571,
5572,
5573,
5574,
5575,
5576,
5577,
5578,
5579,
5580,
5581,
5582,
5583,
5584,
5585,
5586,
5587,
5588,
5589,
5590,
5591,
5592,
5593,
5594,
5595,
5596,
5597,
5598,
5599,
5600,
5601,
5602,
5603,
5604,
5605,
5606,
5607,
5608,
5609,
5610,
5611,
5612,
5613,
5614,
5615,
5616,
5617,
5618,
5619,
5620,
5621,
5622,
5623,
5624,
5625,
5626,
5627,
5628,
5629,
5630,
5631,
5632,
5633,
5634,
5635,
5636,
5637,
5638,
5639,
5640,
5641,
5642,
5643,
5644,
5645,
5646,
5647,
5648,
5649,
5650,
5651,
5652,
5653,
5654,
5655,
5656,
5657,
5658,
5659,
5660,
5661,
5662,
5663,
5664,
5665,
5666,
5667,
5668,
5669,
5670,
5671,
5672,
5673,
5674,
5675,
5676,
5677,
5678,
5679,
5680,
5681,
5682,
5683,
5684,
5685,
5686,
5687,
5688,
5689,
5690,
5691,
5692,
5693,
5694,
5695,
5696,
5697,
5698,
5699,
5700,
5701,
5702,
5703,
5704,
5705,
5706,
5707,
5708,
5709,
5710,
5711,
5712,
5713,
5714,
5715,
5716,
5717,
5718,
5719,
5720,
5721,
5722,
5723,
5724,
5725,
5726,
5727,
5728,
5729,
5730,
5731,
5732,
5733,
5734,
5735,
5736,
5737,
5738,
5739,
5740,
5741,
5742,
5743,
5744,
5745,
5746,
5747,
5748,
5749,
5750,
5751,
5752,
5753,
5754,
5755,
5756,
5757,
5758,
5759,
5760,
5761,
5762,
5763,
5764,
5765,
5766,
5767,
5768,
5769,
5770,
5771,
5772,
5773,
5774,
5775,
5776,
5777,
5778,
5779,
5780,
5781,
5782,
5783,
5784,
5785,
5786,
5787,
5788,
5789,
5790,
5791,
5792,
5793,
5794,
5795,
5796,
5797,
5798,
5799,
5800,
5801,
5802,
5803,
5804,
5805,
5806,
5807,
5808,
5809,
5810,
5811,
5812,
5813,
5814,
5815,
5816,
5817,
5818,
5819,
5820,
5821,
5822,
5823,
5824,
5825,
5826,
5827,
5828,
5829,
5830,
5831,
5832,
5833,
5834,
5835,
5836,
5837,
5838,
5839,
5840,
5841,
5842,
5843,
5844,
5845,
5846,
5847,
5848,
5849,
5850,
5851,
5852,
5853,
5854,
5855,
5856,
5857,
5858,
5859,
5860,
5861,
5862,
5863,
5864,
5865,
5866,
5867,
5868,
5869,
5870,
5871,
5872,
5873,
5874,
5875,
5876,
5877,
5878,
5879,
5880,
5881,
5882,
5883,
5884,
5885,
5886,
5887,
5888,
5889,
5890,
5891,
5892,
5893,
5894,
5895,
5896,
5897,
5898,
5899,
5900,
5901,
5902,
5903,
5904,
5905,
5906,
5907,
5908,
5909,
5910,
5911,
5912,
5913,
5914,
5915,
5916,
5917,
5918,
5919,
5920,
5921,
5922,
5923,
5924,
5925,
5926,
5927,
5928,
5929,
5930,
5931,
5932,
5933,
5934,
5935,
5936,
5937,
5938,
5939,
5940,
5941,
5942,
5943,
5944,
5945,
5946,
5947,
5948,
5949,
5950,
5951,
5952,
5953,
5954,
5955,
5956,
5957,
5958,
5959,
5960,
5961,
5962,
5963,
5964,
5965,
5966,
5967,
5968,
5969,
5970,
5971,
5972,
5973,
5974,
5975,
5976,
5977,
5978,
5979,
5980,
5981,
5982,
5983,
5984,
5985,
5986,
5987,
5988,
5989,
5990,
5991,
5992,
5993,
5994,
5995,
5996,
5997,
5998,
5999,
6000,
6001,
6002,
6003,
6004,
6005,
6006,
6007,
6008,
6009,
6010,
6011,
6012,
6013,
6014,
6015,
6016,
6017,
6018,
6019,
6020,
6021,
6022,
6023,
6024,
6025,
6026,
6027,
6028,
6029,
6030,
6031,
6032,
6033,
6034,
6035,
6036,
6037,
6038,
6039,
6040,
6041,
6042,
6043,
6044,
6045,
6046,
6047,
6048,
6049,
6050,
6051,
6052,
6053,
6054,
6055,
6056,
6057,
6058,
6059,
6060,
6061,
6062,
6063,
6064,
6065,
6066,
6067,
6068,
6069,
6070,
6071,
6072,
6073,
6074,
6075,
6076,
6077,
6078,
6079,
6080,
6081,
6082,
6083,
6084,
6085,
6086,
6087,
6088,
6089,
6090,
6091,
6092,
6093,
6094,
6095,
6096,
6097,
6098,
6099,
6100,
6101,
6102,
6103,
6104,
6105,
6106,
6107,
6108,
6109,
6110,
6111,
6112,
6113,
6114,
6115,
6116,
6117,
6118,
6119,
6120,
6121,
6122,
6123,
6124,
6125,
6126,
6127,
6128,
6129,
6130,
6131,
6132,
6133,
6134,
6135,
6136,
6137,
6138,
6139,
6140,
6141,
6142,
6143,
6144,
6145,
6146,
6147,
6148,
6149,
6150,
6151,
6152,
6153,
6154,
6155,
6156,
6157,
6158,
6159,
6160,
6161,
6162,
6163,
6164,
6165,
6166,
6167,
6168,
6169,
6170,
6171,
6172,
6173,
6174,
6175,
6176,
6177,
6178,
6179,
6180,
6181,
6182,
6183,
6184,
6185,
6186,
6187,
6188,
6189,
6190,
6191,
6192,
6193,
6194,
6195,
6196,
6197,
6198,
6199,
6200,
6201,
6202,
6203,
6204,
6205,
6206,
6207,
6208,
6209,
6210,
6211,
6212,
6213,
6214,
6215,
6216,
6217,
6218,
6219,
6220,
6221,
6222,
6223,
6224,
6225,
6226,
6227,
6228,
6229,
6230,
6231,
6232,
6233,
6234,
6235,
6236,
6237,
6238,
6239,
6240,
6241,
6242,
6243,
6244,
6245,
6246,
6247,
6248,
6249,
6250,
6251,
6252,
6253,
6254,
6255,
6256,
6257,
6258,
6259,
6260,
6261,
6262,
6263,
6264,
6265,
6266,
6267,
6268,
6269,
6270,
6271,
6272,
6273,
6274,
6275,
6276,
6277,
6278,
6279,
6280,
6281,
6282,
6283,
6284,
6285,
6286,
6287,
6288,
6289,
6290,
6291,
6292,
6293,
6294,
6295,
6296,
6297,
6298,
6299,
6300,
6301,
6302,
6303,
6304,
6305,
6306,
6307,
6308,
6309,
6310,
6311,
6312,
6313,
6314,
6315,
6316,
6317,
6318,
6319,
6320,
6321,
6322,
6323,
6324,
6325,
6326,
6327,
6328,
6329,
6330,
6331,
6332,
6333,
6334,
6335,
6336,
6337,
6338,
6339,
6340,
6341,
6342,
6343,
6344,
6345,
6346,
6347,
6348,
6349,
6350,
6351,
6352,
6353,
6354,
6355,
6356,
6357,
6358,
6359,
6360,
6361,
6362,
6363,
6364,
6365,
6366,
6367,
6368,
6369,
6370,
6371,
6372,
6373,
6374,
6375,
6376,
6377,
6378,
6379,
6380,
6381,
6382,
6383,
6384,
6385,
6386,
6387,
6388,
6389,
6390,
6391,
6392,
6393,
6394,
6395,
6396,
6397,
6398,
6399,
6400,
6401,
6402,
6403,
6404,
6405,
6406,
6407,
6408,
6409,
6410,
6411,
6412,
6413,
6414,
6415,
6416,
6417,
6418,
6419,
6420,
6421,
6422,
6423,
6424,
6425,
6426,
6427,
6428,
6429,
6430,
6431,
6432,
6433,
6434,
6435,
6436,
6437,
6438,
6439,
6440,
6441,
6442,
6443,
6444,
6445,
6446,
6447,
6448,
6449,
6450,
6451,
6452,
6453,
6454,
6455,
6456,
6457,
6458,
6459,
6460,
6461,
6462,
6463,
6464,
6465,
6466,
6467,
6468,
6469,
6470,
6471,
6472,
6473,
6474,
6475,
6476,
6477,
6478,
6479,
6480,
6481,
6482,
6483,
6484,
6485,
6486,
6487,
6488,
6489,
6490,
6491,
6492,
6493,
6494,
6495,
6496,
6497,
6498,
6499,
6500,
6501,
6502,
6503,
6504,
6505,
6506,
6507,
6508,
6509,
6510,
6511,
6512,
6513,
6514,
6515,
6516,
6517,
6518,
6519,
6520,
6521,
6522,
6523,
6524,
6525,
6526,
6527,
6528,
6529,
6530,
6531,
6532,
6533,
6534,
6535,
6536,
6537,
6538,
6539,
6540,
6541,
6542,
6543,
6544,
6545,
6546,
6547,
6548,
6549,
6550,
6551,
6552,
6553,
6554,
6555,
6556,
6557,
6558,
6559,
6560,
6561,
6562,
6563,
6564,
6565,
6566,
6567,
6568,
6569,
6570,
6571,
6572,
6573,
6574,
6575,
6576,
6577,
6578,
6579,
6580,
6581,
6582,
6583,
6584,
6585,
6586,
6587,
6588,
6589,
6590,
6591,
6592,
6593,
6594,
6595,
6596,
6597,
6598,
6599,
6600,
6601,
6602,
6603,
6604,
6605,
6606,
6607,
6608,
6609,
6610,
6611,
6612,
6613,
6614,
6615,
6616,
6617,
6618,
6619,
6620,
6621,
6622,
6623,
6624,
6625,
6626,
6627,
6628,
6629,
6630,
6631,
6632,
6633,
6634,
6635,
6636,
6637,
6638,
6639,
6640,
6641,
6642,
6643,
6644,
6645,
6646,
6647,
6648,
6649,
6650,
6651,
6652,
6653,
6654,
6655,
6656,
6657,
6658,
6659,
6660,
6661,
6662,
6663,
6664,
6665,
6666,
6667,
6668,
6669,
6670,
6671,
6672,
6673,
6674,
6675,
6676,
6677,
6678,
6679,
6680,
6681,
6682,
6683,
6684,
6685,
6686,
6687,
6688,
6689,
6690,
6691,
6692,
6693,
6694,
6695,
6696,
6697,
6698,
6699,
6700,
6701,
6702,
6703,
6704,
6705,
6706,
6707,
6708,
6709,
6710,
6711,
6712,
6713,
6714,
6715,
6716,
6717,
6718,
6719,
6720,
6721,
6722,
6723,
6724,
6725,
6726,
6727,
6728,
6729,
6730,
6731,
6732,
6733,
6734,
6735,
6736,
6737,
6738,
6739,
6740,
6741,
6742,
6743,
6744,
6745,
6746,
6747,
6748,
6749,
6750,
6751,
6752,
6753,
6754,
6755,
6756,
6757,
6758,
6759,
6760,
6761,
6762,
6763,
6764,
6765,
6766,
6767,
6768,
6769,
6770,
6771,
6772,
6773,
6774,
6775,
6776,
6777,
6778,
6779,
6780,
6781,
6782,
6783,
6784,
6785,
6786,
6787,
6788,
6789,
6790,
6791,
6792,
6793,
6794,
6795,
6796,
6797,
6798,
6799,
6800,
6801,
6802,
6803,
6804,
6805,
6806,
6807,
6808,
6809,
6810,
6811,
6812,
6813,
6814,
6815,
6816,
6817,
6818,
6819,
6820,
6821,
6822,
6823,
6824,
6825,
6826,
6827,
6828,
6829,
6830,
6831,
6832,
6833,
6834,
6835,
6836,
6837,
6838,
6839,
6840,
6841,
6842,
6843,
6844,
6845,
6846,
6847,
6848,
6849,
6850,
6851,
6852,
6853,
6854,
6855,
6856,
6857,
6858,
6859,
6860,
6861,
6862,
6863,
6864,
6865,
6866,
6867,
6868,
6869,
6870,
6871,
6872,
6873,
6874,
6875,
6876,
6877,
6878,
6879,
6880,
6881,
6882,
6883,
6884,
6885,
6886,
6887,
6888,
6889,
6890,
6891,
6892,
6893,
6894,
6895,
6896,
6897,
6898,
6899,
6900,
6901,
6902,
6903,
6904,
6905,
6906,
6907,
6908,
6909,
6910,
6911,
6912,
6913,
6914,
6915,
6916,
6917,
6918,
6919,
6920,
6921,
6922,
6923,
6924,
6925,
6926,
6927,
6928,
6929,
6930,
6931,
6932,
6933,
6934,
6935,
6936,
6937,
6938,
6939,
6940,
6941,
6942,
6943,
6944,
6945,
6946,
6947,
6948,
6949,
6950,
6951,
6952,
6953,
6954,
6955,
6956,
6957,
6958,
6959,
6960,
6961,
6962,
6963,
6964,
6965,
6966,
6967,
6968,
6969,
6970,
6971,
6972,
6973,
6974,
6975,
6976,
6977,
6978,
6979,
6980,
6981,
6982,
6983,
6984,
6985,
6986,
6987,
6988,
6989,
6990,
6991,
6992,
6993,
6994,
6995,
6996,
6997,
6998,
6999,
7000,
7001,
7002,
7003,
7004,
7005,
7006,
7007,
7008,
7009,
7010,
7011,
7012,
7013,
7014,
7015,
7016,
7017,
7018,
7019,
7020,
7021,
7022,
7023,
7024,
7025,
7026,
7027,
7028,
7029,
7030,
7031,
7032,
7033,
7034,
7035,
7036,
7037,
7038,
7039,
7040,
7041,
7042,
7043,
7044,
7045,
7046,
7047,
7048,
7049,
7050,
7051,
7052,
7053,
7054,
7055,
7056,
7057,
7058,
7059,
7060,
7061,
7062,
7063,
7064,
7065,
7066,
7067,
7068,
7069,
7070,
7071,
7072,
7073,
7074,
7075,
7076,
7077,
7078,
7079,
7080,
7081,
7082,
7083,
7084,
7085,
7086,
7087,
7088,
7089,
7090,
7091,
7092,
7093,
7094,
7095,
7096,
7097,
7098,
7099,
7100,
7101,
7102,
7103,
7104,
7105,
7106,
7107,
7108,
7109,
7110,
7111,
7112,
7113,
7114,
7115,
7116,
7117,
7118,
7119,
7120,
7121,
7122,
7123,
7124,
7125,
7126,
7127,
7128,
7129,
7130,
7131,
7132,
7133,
7134,
7135,
7136,
7137,
7138,
7139,
7140,
7141,
7142,
7143,
7144,
7145,
7146,
7147,
7148,
7149,
7150,
7151,
7152,
7153,
7154,
7155,
7156,
7157,
7158,
7159,
7160,
7161,
7162,
7163,
7164,
7165,
7166,
7167,
7168,
7169,
7170,
7171,
7172,
7173,
7174,
7175,
7176,
7177,
7178,
7179,
7180,
7181,
7182,
7183,
7184,
7185,
7186,
7187,
7188,
7189,
7190,
7191,
7192,
7193,
7194,
7195,
7196,
7197,
7198,
7199,
7200,
7201,
7202,
7203,
7204,
7205,
7206,
7207,
7208,
7209,
7210,
7211,
7212,
7213,
7214,
7215,
7216,
7217,
7218,
7219,
7220,
7221,
7222,
7223,
7224,
7225,
7226,
7227,
7228,
7229,
7230,
7231,
7232,
7233,
7234,
7235,
7236,
7237,
7238,
7239,
7240,
7241,
7242,
7243,
7244,
7245,
7246,
7247,
7248,
7249,
7250,
7251,
7252,
7253,
7254,
7255,
7256,
7257,
7258,
7259,
7260,
7261,
7262,
7263,
7264,
7265,
7266,
7267,
7268,
7269,
7270,
7271,
7272,
7273,
7274,
7275,
7276,
7277,
7278,
7279,
7280,
7281,
7282,
7283,
7284,
7285,
7286,
7287,
7288,
7289,
7290,
7291,
7292,
7293,
7294,
7295,
7296,
7297,
7298,
7299,
7300,
7301,
7302,
7303,
7304,
7305,
7306,
7307,
7308,
7309,
7310,
7311,
7312,
7313,
7314,
7315,
7316,
7317,
7318,
7319,
7320,
7321,
7322,
7323,
7324,
7325,
7326,
7327,
7328,
7329,
7330,
7331,
7332,
7333,
7334,
7335,
7336,
7337,
7338,
7339,
7340,
7341,
7342,
7343,
7344,
7345,
7346,
7347,
7348,
7349,
7350,
7351,
7352,
7353,
7354,
7355,
7356,
7357,
7358,
7359,
7360,
7361,
7362,
7363,
7364,
7365,
7366,
7367,
7368,
7369,
7370,
7371,
7372,
7373,
7374,
7375,
7376,
7377,
7378,
7379,
7380,
7381,
7382,
7383,
7384,
7385,
7386,
7387,
7388,
7389,
7390,
7391,
7392,
7393,
7394,
7395,
7396,
7397,
7398,
7399,
7400,
7401,
7402,
7403,
7404,
7405,
7406,
7407,
7408,
7409,
7410,
7411,
7412,
7413,
7414,
7415,
7416,
7417,
7418,
7419,
7420,
7421,
7422,
7423,
7424,
7425,
7426,
7427,
7428,
7429,
7430,
7431,
7432,
7433,
7434,
7435,
7436,
7437,
7438,
7439,
7440,
7441,
7442,
7443,
7444,
7445,
7446,
7447,
7448,
7449,
7450,
7451,
7452,
7453,
7454,
7455,
7456,
7457,
7458,
7459,
7460,
7461,
7462,
7463,
7464,
7465,
7466,
7467,
7468,
7469,
7470,
7471,
7472,
7473,
7474,
7475,
7476,
7477,
7478,
7479,
7480,
7481,
7482,
7483,
7484,
7485,
7486,
7487,
7488,
7489,
7490,
7491,
7492,
7493,
7494,
7495,
7496,
7497,
7498,
7499,
7500,
7501,
7502,
7503,
7504,
7505,
7506,
7507,
7508,
7509,
7510,
7511,
7512,
7513,
7514,
7515,
7516,
7517,
7518,
7519,
7520,
7521,
7522,
7523,
7524,
7525,
7526,
7527,
7528,
7529,
7530,
7531,
7532,
7533,
7534,
7535,
7536,
7537,
7538,
7539,
7540,
7541,
7542,
7543,
7544,
7545,
7546,
7547,
7548,
7549,
7550,
7551,
7552,
7553,
7554,
7555,
7556,
7557,
7558,
7559,
7560,
7561,
7562,
7563,
7564,
7565,
7566,
7567,
7568,
7569,
7570,
7571,
7572,
7573,
7574,
7575,
7576,
7577,
7578,
7579,
7580,
7581,
7582,
7583,
7584,
7585,
7586,
7587,
7588,
7589,
7590,
7591,
7592,
7593,
7594,
7595,
7596,
7597,
7598,
7599,
7600,
7601,
7602,
7603,
7604,
7605,
7606,
7607,
7608,
7609,
7610,
7611,
7612,
7613,
7614,
7615,
7616,
7617,
7618,
7619,
7620,
7621,
7622,
7623,
7624,
7625,
7626,
7627,
7628,
7629,
7630,
7631,
7632,
7633,
7634,
7635,
7636,
7637,
7638,
7639,
7640,
7641,
7642,
7643,
7644,
7645,
7646,
7647,
7648,
7649,
7650,
7651,
7652,
7653,
7654,
7655,
7656,
7657,
7658,
7659,
7660,
7661,
7662,
7663,
7664,
7665,
7666,
7667,
7668,
7669,
7670,
7671,
7672,
7673,
7674,
7675,
7676,
7677,
7678,
7679,
7680,
7681,
7682,
7683,
7684,
7685,
7686,
7687,
7688,
7689,
7690,
7691,
7692,
7693,
7694,
7695,
7696,
7697,
7698,
7699,
7700,
7701,
7702,
7703,
7704,
7705,
7706,
7707,
7708,
7709,
7710,
7711,
7712,
7713,
7714,
7715,
7716,
7717,
7718,
7719,
7720,
7721,
7722,
7723,
7724,
7725,
7726,
7727,
7728,
7729,
7730,
7731,
7732,
7733,
7734,
7735,
7736,
7737,
7738,
7739,
7740,
7741,
7742,
7743,
7744,
7745,
7746,
7747,
7748,
7749,
7750,
7751,
7752,
7753,
7754,
7755,
7756,
7757,
7758,
7759,
7760,
7761,
7762,
7763,
7764,
7765,
7766,
7767,
7768,
7769,
7770,
7771,
7772,
7773,
7774,
7775,
7776,
7777,
7778,
7779,
7780,
7781,
7782,
7783,
7784,
7785,
7786,
7787,
7788,
7789,
7790,
7791,
7792,
7793,
7794,
7795,
7796,
7797,
7798,
7799,
7800,
7801,
7802,
7803,
7804,
7805,
7806,
7807,
7808,
7809,
7810,
7811,
7812,
7813,
7814,
7815,
7816,
7817,
7818,
7819,
7820,
7821,
7822,
7823,
7824,
7825,
7826,
7827,
7828,
7829,
7830,
7831,
7832,
7833,
7834,
7835,
7836,
7837,
7838,
7839,
7840,
7841,
7842,
7843,
7844,
7845,
7846,
7847,
7848,
7849,
7850,
7851,
7852,
7853,
7854,
7855,
7856,
7857,
7858,
7859,
7860,
7861,
7862,
7863,
7864,
7865,
7866,
7867,
7868,
7869,
7870,
7871,
7872,
7873,
7874,
7875,
7876,
7877,
7878,
7879,
7880,
7881,
7882,
7883,
7884,
7885,
7886,
7887,
7888,
7889,
7890,
7891,
7892,
7893,
7894,
7895,
7896,
7897,
7898,
7899,
7900,
7901,
7902,
7903,
7904,
7905,
7906,
7907,
7908,
7909,
7910,
7911,
7912,
7913,
7914,
7915,
7916,
7917,
7918,
7919,
7920,
7921,
7922,
7923,
7924,
7925,
7926,
7927,
7928,
7929,
7930,
7931,
7932,
7933,
7934,
7935,
7936,
7937,
7938,
7939,
7940,
7941,
7942,
7943,
7944,
7945,
7946,
7947,
7948,
7949,
7950,
7951,
7952,
7953,
7954,
7955,
7956,
7957,
7958,
7959,
7960,
7961,
7962,
7963,
7964,
7965,
7966,
7967,
7968,
7969,
7970,
7971,
7972,
7973,
7974,
7975,
7976,
7977,
7978,
7979,
7980,
7981,
7982,
7983,
7984,
7985,
7986,
7987,
7988,
7989,
7990,
7991,
7992,
7993,
7994,
7995,
7996,
7997,
7998,
7999,
8000,
8001,
8002,
8003,
8004,
8005,
8006,
8007,
8008,
8009,
8010,
8011,
8012,
8013,
8014,
8015,
8016,
8017,
8018,
8019,
8020,
8021,
8022,
8023,
8024,
8025,
8026,
8027,
8028,
8029,
8030,
8031,
8032,
8033,
8034,
8035,
8036,
8037,
8038,
8039,
8040,
8041,
8042,
8043,
8044,
8045,
8046,
8047,
8048,
8049,
8050,
8051,
8052,
8053,
8054,
8055,
8056,
8057,
8058,
8059,
8060,
8061,
8062,
8063,
8064,
8065,
8066,
8067,
8068,
8069,
8070,
8071,
8072,
8073,
8074,
8075,
8076,
8077,
8078,
8079,
8080,
8081,
8082,
8083,
8084,
8085,
8086,
8087,
8088,
8089,
8090,
8091,
8092,
8093,
8094,
8095,
8096,
8097,
8098,
8099,
8100,
8101,
8102,
8103,
8104,
8105,
8106,
8107,
8108,
8109,
8110,
8111,
8112,
8113,
8114,
8115,
8116,
8117,
8118,
8119,
8120,
8121,
8122,
8123,
8124,
8125,
8126,
8127,
8128,
8129,
8130,
8131,
8132,
8133,
8134,
8135,
8136,
8137,
8138,
8139,
8140,
8141,
8142,
8143,
8144,
8145,
8146,
8147,
8148,
8149,
8150,
8151,
8152,
8153,
8154,
8155,
8156,
8157,
8158,
8159,
8160,
8161,
8162,
8163,
8164,
8165,
8166,
8167,
8168,
8169,
8170,
8171,
8172,
8173,
8174,
8175,
8176,
8177,
8178,
8179,
8180,
8181,
8182,
8183,
8184,
8185,
8186,
8187,
8188,
8189,
8190,
8191,
8192,
8193,
8194,
8195,
8196,
8197,
8198,
8199,
8200,
8201,
8202,
8203,
8204,
8205,
8206,
8207,
8208,
8209,
8210,
8211,
8212,
8213,
8214,
8215,
8216,
8217,
8218,
8219,
8220,
8221,
8222,
8223,
8224,
8225,
8226,
8227,
8228,
8229,
8230,
8231,
8232,
8233,
8234,
8235,
8236,
8237,
8238,
8239,
8240,
8241,
8242,
8243,
8244,
8245,
8246,
8247,
8248,
8249,
8250,
8251,
8252,
8253,
8254,
8255,
8256,
8257,
8258,
8259,
8260,
8261,
8262,
8263,
8264,
8265,
8266,
8267,
8268,
8269,
8270,
8271,
8272,
8273,
8274,
8275,
8276,
8277,
8278,
8279,
8280,
8281,
8282,
8283,
8284,
8285,
8286,
8287,
8288,
8289,
8290,
8291,
8292,
8293,
8294,
8295,
8296,
8297,
8298,
8299,
8300,
8301,
8302,
8303,
8304,
8305,
8306,
8307,
8308,
8309,
8310,
8311,
8312,
8313,
8314,
8315,
8316,
8317,
8318,
8319,
8320,
8321,
8322,
8323,
8324,
8325,
8326,
8327,
8328,
8329,
8330,
8331,
8332,
8333,
8334,
8335,
8336,
8337,
8338,
8339,
8340,
8341,
8342,
8343,
8344,
8345,
8346,
8347,
8348,
8349,
8350,
8351,
8352,
8353,
8354,
8355,
8356,
8357,
8358,
8359,
8360,
8361,
8362,
8363,
8364,
8365,
8366,
8367,
8368,
8369,
8370,
8371,
8372,
8373,
8374,
8375,
8376,
8377,
8378,
8379,
8380,
8381,
8382,
8383,
8384,
8385,
8386,
8387,
8388,
8389,
8390,
8391,
8392,
8393,
8394,
8395,
8396,
8397,
8398,
8399,
8400,
8401,
8402,
8403,
8404,
8405,
8406,
8407,
8408,
8409,
8410,
8411,
8412,
8413,
8414,
8415,
8416,
8417,
8418,
8419,
8420,
8421,
8422,
8423,
8424,
8425,
8426,
8427,
8428,
8429,
8430,
8431,
8432,
8433,
8434,
8435,
8436,
8437,
8438,
8439,
8440,
8441,
8442,
8443,
8444,
8445,
8446,
8447,
8448,
8449,
8450,
8451,
8452,
8453,
8454,
8455,
8456,
8457,
8458,
8459,
8460,
8461,
8462,
8463,
8464,
8465,
8466,
8467,
8468,
8469,
8470,
8471,
8472,
8473,
8474,
8475,
8476,
8477,
8478,
8479,
8480,
8481,
8482,
8483,
8484,
8485,
8486,
8487,
8488,
8489,
8490,
8491,
8492,
8493,
8494,
8495,
8496,
8497,
8498,
8499,
8500,
8501,
8502,
8503,
8504,
8505,
8506,
8507,
8508,
8509,
8510,
8511,
8512,
8513,
8514,
8515,
8516,
8517,
8518,
8519,
8520,
8521,
8522,
8523,
8524,
8525,
8526,
8527,
8528,
8529,
8530,
8531,
8532,
8533,
8534,
8535,
8536,
8537,
8538,
8539,
8540,
8541,
8542,
8543,
8544,
8545,
8546,
8547,
8548,
8549,
8550,
8551,
8552,
8553,
8554,
8555,
8556,
8557,
8558,
8559,
8560,
8561,
8562,
8563,
8564,
8565,
8566,
8567,
8568,
8569,
8570,
8571,
8572,
8573,
8574,
8575,
8576,
8577,
8578,
8579,
8580,
8581,
8582,
8583,
8584,
8585,
8586,
8587,
8588,
8589,
8590,
8591,
8592,
8593,
8594,
8595,
8596,
8597,
8598,
8599,
8600,
8601,
8602,
8603,
8604,
8605,
8606,
8607,
8608,
8609,
8610,
8611,
8612,
8613,
8614,
8615,
8616,
8617,
8618,
8619,
8620,
8621,
8622,
8623,
8624,
8625,
8626,
8627,
8628,
8629,
8630,
8631,
8632,
8633,
8634,
8635,
8636,
8637,
8638,
8639,
8640,
8641,
8642,
8643,
8644,
8645,
8646,
8647,
8648,
8649,
8650,
8651,
8652,
8653,
8654,
8655,
8656,
8657,
8658,
8659,
8660,
8661,
8662,
8663,
8664,
8665,
8666,
8667,
8668,
8669,
8670,
8671,
8672,
8673,
8674,
8675,
8676,
8677,
8678,
8679,
8680,
8681,
8682,
8683,
8684,
8685,
8686,
8687,
8688,
8689,
8690,
8691,
8692,
8693,
8694,
8695,
8696,
8697,
8698,
8699,
8700,
8701,
8702,
8703,
8704,
8705,
8706,
8707,
8708,
8709,
8710,
8711,
8712,
8713,
8714,
8715,
8716,
8717,
8718,
8719,
8720,
8721,
8722,
8723,
8724,
8725,
8726,
8727,
8728,
8729,
8730,
8731,
8732,
8733,
8734,
8735,
8736,
8737,
8738,
8739,
8740,
8741,
8742,
8743,
8744,
8745,
8746,
8747,
8748,
8749,
8750,
8751,
8752,
8753,
8754,
8755,
8756,
8757,
8758,
8759,
8760,
8761,
8762,
8763,
8764,
8765,
8766,
8767,
8768,
8769,
8770,
8771,
8772,
8773,
8774,
8775,
8776,
8777,
8778,
8779,
8780,
8781,
8782,
8783,
8784,
8785,
8786,
8787,
8788,
8789,
8790,
8791,
8792,
8793,
8794,
8795,
8796,
8797,
8798,
8799,
8800,
8801,
8802,
8803,
8804,
8805,
8806,
8807,
8808,
8809,
8810,
8811,
8812,
8813,
8814,
8815,
8816,
8817,
8818,
8819,
8820,
8821,
8822,
8823,
8824,
8825,
8826,
8827,
8828,
8829,
8830,
8831,
8832,
8833,
8834,
8835,
8836,
8837,
8838,
8839,
8840,
8841,
8842,
8843,
8844,
8845,
8846,
8847,
8848,
8849,
8850,
8851,
8852,
8853,
8854,
8855,
8856,
8857,
8858,
8859,
8860,
8861,
8862,
8863,
8864,
8865,
8866,
8867,
8868,
8869,
8870,
8871,
8872,
8873,
8874,
8875,
8876,
8877,
8878,
8879,
8880,
8881,
8882,
8883,
8884,
8885,
8886,
8887,
8888,
8889,
8890,
8891,
8892,
8893,
8894,
8895,
8896,
8897,
8898,
8899,
8900,
8901,
8902,
8903,
8904,
8905,
8906,
8907,
8908,
8909,
8910,
8911,
8912,
8913,
8914,
8915,
8916,
8917,
8918,
8919,
8920,
8921,
8922,
8923,
8924,
8925,
8926,
8927,
8928,
8929,
8930,
8931,
8932,
8933,
8934,
8935,
8936,
8937,
8938,
8939,
8940,
8941,
8942,
8943,
8944,
8945,
8946,
8947,
8948,
8949,
8950,
8951,
8952,
8953,
8954,
8955,
8956,
8957,
8958,
8959,
8960,
8961,
8962,
8963,
8964,
8965,
8966,
8967,
8968,
8969,
8970,
8971,
8972,
8973,
8974,
8975,
8976,
8977,
8978,
8979,
8980,
8981,
8982,
8983,
8984,
8985,
8986,
8987,
8988,
8989,
8990,
8991,
8992,
8993,
8994,
8995,
8996,
8997,
8998,
8999,
9000,
9001,
9002,
9003,
9004,
9005,
9006,
9007,
9008,
9009,
9010,
9011,
9012,
9013,
9014,
9015,
9016,
9017,
9018,
9019,
9020,
9021,
9022,
9023,
9024,
9025,
9026,
9027,
9028,
9029,
9030,
9031,
9032,
9033,
9034,
9035,
9036,
9037,
9038,
9039,
9040,
9041,
9042,
9043,
9044,
9045,
9046,
9047,
9048,
9049,
9050,
9051,
9052,
9053,
9054,
9055,
9056,
9057,
9058,
9059,
9060,
9061,
9062,
9063,
9064,
9065,
9066,
9067,
9068,
9069,
9070,
9071,
9072,
9073,
9074,
9075,
9076,
9077,
9078,
9079,
9080,
9081,
9082,
9083,
9084,
9085,
9086,
9087,
9088,
9089,
9090,
9091,
9092,
9093,
9094,
9095,
9096,
9097,
9098,
9099,
9100,
9101,
9102,
9103,
9104,
9105,
9106,
9107,
9108,
9109,
9110,
9111,
9112,
9113,
9114,
9115,
9116,
9117,
9118,
9119,
9120,
9121,
9122,
9123,
9124,
9125,
9126,
9127,
9128,
9129,
9130,
9131,
9132,
9133,
9134,
9135,
9136,
9137,
9138,
9139,
9140,
9141,
9142,
9143,
9144,
9145,
9146,
9147,
9148,
9149,
9150,
9151,
9152,
9153,
9154,
9155,
9156,
9157,
9158,
9159,
9160,
9161,
9162,
9163,
9164,
9165,
9166,
9167,
9168,
9169,
9170,
9171,
9172,
9173,
9174,
9175,
9176,
9177,
9178,
9179,
9180,
9181,
9182,
9183,
9184,
9185,
9186,
9187,
9188,
9189,
9190,
9191,
9192,
9193,
9194,
9195,
9196,
9197,
9198,
9199,
9200,
9201,
9202,
9203,
9204,
9205,
9206,
9207,
9208,
9209,
9210,
9211,
9212,
9213,
9214,
9215,
9216,
9217,
9218,
9219,
9220,
9221,
9222,
9223,
9224,
9225,
9226,
9227,
9228,
9229,
9230,
9231,
9232,
9233,
9234,
9235,
9236,
9237,
9238,
9239,
9240,
9241,
9242,
9243,
9244,
9245,
9246,
9247,
9248,
9249,
9250,
9251,
9252,
9253,
9254,
9255,
9256,
9257,
9258,
9259,
9260,
9261,
9262,
9263,
9264,
9265,
9266,
9267,
9268,
9269,
9270,
9271,
9272,
9273,
9274,
9275,
9276,
9277,
9278,
9279,
9280,
9281,
9282,
9283,
9284,
9285,
9286,
9287,
9288,
9289,
9290,
9291,
9292,
9293,
9294,
9295,
9296,
9297,
9298,
9299,
9300,
9301,
9302,
9303,
9304,
9305,
9306,
9307,
9308,
9309,
9310,
9311,
9312,
9313,
9314,
9315,
9316,
9317,
9318,
9319,
9320,
9321,
9322,
9323,
9324,
9325,
9326,
9327,
9328,
9329,
9330,
9331,
9332,
9333,
9334,
9335,
9336,
9337,
9338,
9339,
9340,
9341,
9342,
9343,
9344,
9345,
9346,
9347,
9348,
9349,
9350,
9351,
9352,
9353,
9354,
9355,
9356,
9357,
9358,
9359,
9360,
9361,
9362,
9363,
9364,
9365,
9366,
9367,
9368,
9369,
9370,
9371,
9372,
9373,
9374,
9375,
9376,
9377,
9378,
9379,
9380,
9381,
9382,
9383,
9384,
9385,
9386,
9387,
9388,
9389,
9390,
9391,
9392,
9393,
9394,
9395,
9396,
9397,
9398,
9399,
9400,
9401,
9402,
9403,
9404,
9405,
9406,
9407,
9408,
9409,
9410,
9411,
9412,
9413,
9414,
9415,
9416,
9417,
9418,
9419,
9420,
9421,
9422,
9423,
9424,
9425,
9426,
9427,
9428,
9429,
9430,
9431,
9432,
9433,
9434,
9435,
9436,
9437,
9438,
9439,
9440,
9441,
9442,
9443,
9444,
9445,
9446,
9447,
9448,
9449,
9450,
9451,
9452,
9453,
9454,
9455,
9456,
9457,
9458,
9459,
9460,
9461,
9462,
9463,
9464,
9465,
9466,
9467,
9468,
9469,
9470,
9471,
9472,
9473,
9474,
9475,
9476,
9477,
9478,
9479,
9480,
9481,
9482,
9483,
9484,
9485,
9486,
9487,
9488,
9489,
9490,
9491,
9492,
9493,
9494,
9495,
9496,
9497,
9498,
9499,
9500,
9501,
9502,
9503,
9504,
9505,
9506,
9507,
9508,
9509,
9510,
9511,
9512,
9513,
9514,
9515,
9516,
9517,
9518,
9519,
9520,
9521,
9522,
9523,
9524,
9525,
9526,
9527,
9528,
9529,
9530,
9531,
9532,
9533,
9534,
9535,
9536,
9537,
9538,
9539,
9540,
9541,
9542,
9543,
9544,
9545,
9546,
9547,
9548,
9549,
9550,
9551,
9552,
9553,
9554,
9555,
9556,
9557,
9558,
9559,
9560,
9561,
9562,
9563,
9564,
9565,
9566,
9567,
9568,
9569,
9570,
9571,
9572,
9573,
9574,
9575,
9576,
9577,
9578,
9579,
9580,
9581,
9582,
9583,
9584,
9585,
9586,
9587,
9588,
9589,
9590,
9591,
9592,
9593,
9594,
9595,
9596,
9597,
9598,
9599,
9600,
9601,
9602,
9603,
9604,
9605,
9606,
9607,
9608,
9609,
9610,
9611,
9612,
9613,
9614,
9615,
9616,
9617,
9618,
9619,
9620,
9621,
9622,
9623,
9624,
9625,
9626,
9627,
9628,
9629,
9630,
9631,
9632,
9633,
9634,
9635,
9636,
9637,
9638,
9639,
9640,
9641,
9642,
9643,
9644,
9645,
9646,
9647,
9648,
9649,
9650,
9651,
9652,
9653,
9654,
9655,
9656,
9657,
9658,
9659,
9660,
9661,
9662,
9663,
9664,
9665,
9666,
9667,
9668,
9669,
9670,
9671,
9672,
9673,
9674,
9675,
9676,
9677,
9678,
9679,
9680,
9681,
9682,
9683,
9684,
9685,
9686,
9687,
9688,
9689,
9690,
9691,
9692,
9693,
9694,
9695,
9696,
9697,
9698,
9699,
9700,
9701,
9702,
9703,
9704,
9705,
9706,
9707,
9708,
9709,
9710,
9711,
9712,
9713,
9714,
9715,
9716,
9717,
9718,
9719,
9720,
9721,
9722,
9723,
9724,
9725,
9726,
9727,
9728,
9729,
9730,
9731,
9732,
9733,
9734,
9735,
9736,
9737,
9738,
9739,
9740,
9741,
9742,
9743,
9744,
9745,
9746,
9747,
9748,
9749,
9750,
9751,
9752,
9753,
9754,
9755,
9756,
9757,
9758,
9759,
9760,
9761,
9762,
9763,
9764,
9765,
9766,
9767,
9768,
9769,
9770,
9771,
9772,
9773,
9774,
9775,
9776,
9777,
9778,
9779,
9780,
9781,
9782,
9783,
9784,
9785,
9786,
9787,
9788,
9789,
9790,
9791,
9792,
9793,
9794,
9795,
9796,
9797,
9798,
9799,
9800,
9801,
9802,
9803,
9804,
9805,
9806,
9807,
9808,
9809,
9810,
9811,
9812,
9813,
9814,
9815,
9816,
9817,
9818,
9819,
9820,
9821,
9822,
9823,
9824,
9825,
9826,
9827,
9828,
9829,
9830,
9831,
9832,
9833,
9834,
9835,
9836,
9837,
9838,
9839,
9840,
9841,
9842,
9843,
9844,
9845,
9846,
9847,
9848,
9849,
9850,
9851,
9852,
9853,
9854,
9855,
9856,
9857,
9858,
9859,
9860,
9861,
9862,
9863,
9864,
9865,
9866,
9867,
9868,
9869,
9870,
9871,
9872,
9873,
9874,
9875,
9876,
9877,
9878,
9879,
9880,
9881,
9882,
9883,
9884,
9885,
9886,
9887,
9888,
9889,
9890,
9891,
9892,
9893,
9894,
9895,
9896,
9897,
9898,
9899,
9900,
9901,
9902,
9903,
9904,
9905,
9906,
9907,
9908,
9909,
9910,
9911,
9912,
9913,
9914,
9915,
9916,
9917,
9918,
9919,
9920,
9921,
9922,
9923,
9924,
9925,
9926,
9927,
9928,
9929,
9930,
9931,
9932,
9933,
9934,
9935,
9936,
9937,
9938,
9939,
9940,
9941,
9942,
9943,
9944,
9945,
9946,
9947,
9948,
9949,
9950,
9951,
9952,
9953,
9954,
9955,
9956,
9957,
9958,
9959,
9960,
9961,
9962,
9963,
9964,
9965,
9966,
9967,
9968,
9969,
9970,
9971,
9972,
9973,
9974,
9975,
9976,
9977,
9978,
9979,
9980,
9981,
9982,
9983,
9984,
9985,
9986,
9987,
9988,
9989,
9990,
9991,
9992,
9993,
9994,
9995,
9996,
9997,
9998,
9999,
10000,
10001,
10002,
10003,
10004,
10005,
10006,
10007,
10008,
10009,
10010,
10011,
10012,
10013,
10014,
10015,
10016,
10017,
10018,
10019,
10020,
10021,
10022,
10023,
10024,
10025,
10026,
10027,
10028,
10029,
10030,
10031,
10032,
10033,
10034,
10035,
10036,
10037,
10038,
10039,
10040,
10041,
10042,
10043,
10044,
10045,
10046,
10047,
10048,
10049,
10050,
10051,
10052,
10053,
10054,
10055,
10056,
10057,
10058,
10059,
10060,
10061,
10062,
10063,
10064,
10065,
10066,
10067,
10068,
10069,
10070,
10071,
10072,
10073,
10074,
10075,
10076,
10077,
10078,
10079,
10080,
10081,
10082,
10083,
10084,
10085,
10086,
10087,
10088,
10089,
10090,
10091,
10092,
10093,
10094,
10095,
10096,
10097,
10098,
10099,
10100,
10101,
10102,
10103,
10104,
10105,
10106,
10107,
10108,
10109,
10110,
10111,
10112,
10113,
10114,
10115,
10116,
10117,
10118,
10119,
10120,
10121,
10122,
10123,
10124,
10125,
10126,
10127,
10128,
10129,
10130,
10131,
10132,
10133,
10134,
10135,
10136,
10137,
10138,
10139,
10140,
10141,
10142,
10143,
10144,
10145,
10146,
10147,
10148,
10149,
10150,
10151,
10152,
10153,
10154,
10155,
10156,
10157,
10158,
10159,
10160,
10161,
10162,
10163,
10164,
10165,
10166,
10167,
10168,
10169,
10170,
10171,
10172,
10173,
10174,
10175,
10176,
10177,
10178,
10179,
10180,
10181,
10182,
10183,
10184,
10185,
10186,
10187,
10188,
10189,
10190,
10191,
10192,
10193,
10194,
10195,
10196,
10197,
10198,
10199,
10200,
10201,
10202,
10203,
10204,
10205,
10206,
10207,
10208,
10209,
10210,
10211,
10212,
10213,
10214,
10215,
10216,
10217,
10218,
10219,
10220,
10221,
10222,
10223,
10224,
10225,
10226,
10227,
10228,
10229,
10230,
10231,
10232,
10233,
10234,
10235,
10236,
10237,
10238,
10239,
10240,
10241,
10242,
10243,
10244,
10245,
10246,
10247,
10248,
10249,
10250,
10251,
10252,
10253,
10254,
10255,
10256,
10257,
10258,
10259,
10260,
10261,
10262,
10263,
10264,
10265,
10266,
10267,
10268,
10269,
10270,
10271,
10272,
10273,
10274,
10275,
10276,
10277,
10278,
10279,
10280,
10281,
10282,
10283,
10284,
10285,
10286,
10287,
10288,
10289,
10290,
10291,
10292,
10293,
10294,
10295,
10296,
10297,
10298,
10299,
10300,
10301,
10302,
10303,
10304,
10305,
10306,
10307,
10308,
10309,
10310,
10311,
10312,
10313,
10314,
10315,
10316,
10317,
10318,
10319,
10320,
10321,
10322,
10323,
10324,
10325,
10326,
10327,
10328,
10329,
10330,
10331,
10332,
10333,
10334,
10335,
10336,
10337,
10338,
10339,
10340,
10341,
10342,
10343,
10344,
10345,
10346,
10347,
10348,
10349,
10350,
10351,
10352,
10353,
10354,
10355,
10356,
10357,
10358,
10359,
10360,
10361,
10362,
10363,
10364,
10365,
10366,
10367,
10368,
10369,
10370,
10371,
10372,
10373,
10374,
10375,
10376,
10377,
10378,
10379,
10380,
10381,
10382,
10383,
10384,
10385,
10386,
10387,
10388,
10389,
10390,
10391,
10392,
10393,
10394,
10395,
10396,
10397,
10398,
10399,
10400,
10401,
10402,
10403,
10404,
10405,
10406,
10407,
10408,
10409,
10410,
10411,
10412,
10413,
10414,
10415,
10416,
10417,
10418,
10419,
10420,
10421,
10422,
10423,
10424,
10425,
10426,
10427,
10428,
10429,
10430,
10431,
10432,
10433,
10434,
10435,
10436,
10437,
10438,
10439,
10440,
10441,
10442,
10443,
10444,
10445,
10446,
10447,
10448,
10449,
10450,
10451,
10452,
10453,
10454,
10455,
10456,
10457,
10458,
10459,
10460,
10461,
10462,
10463,
10464,
10465,
10466,
10467,
10468,
10469,
10470,
10471,
10472,
10473,
10474,
10475,
10476,
10477,
10478,
10479,
10480,
10481,
10482,
10483,
10484,
10485,
10486,
10487,
10488,
10489,
10490,
10491,
10492,
10493,
10494,
10495,
10496,
10497,
10498,
10499,
10500,
10501,
10502,
10503,
10504,
10505,
10506,
10507,
10508,
10509,
10510,
10511,
10512,
10513,
10514,
10515,
10516,
10517,
10518,
10519,
10520,
10521,
10522,
10523,
10524,
10525,
10526,
10527,
10528,
10529,
10530,
10531,
10532,
10533,
10534,
10535,
10536,
10537,
10538,
10539,
10540,
10541,
10542,
10543,
10544,
10545,
10546,
10547,
10548,
10549,
10550,
10551,
10552,
10553,
10554,
10555,
10556,
10557,
10558,
10559,
10560,
10561,
10562,
10563,
10564,
10565,
10566,
10567,
10568,
10569,
10570,
10571,
10572,
10573,
10574,
10575,
10576,
10577,
10578,
10579,
10580,
10581,
10582,
10583,
10584,
10585,
10586,
10587,
10588,
10589,
10590,
10591,
10592,
10593,
10594,
10595,
10596,
10597,
10598,
10599,
10600,
10601,
10602,
10603,
10604,
10605,
10606,
10607,
10608,
10609,
10610,
10611,
10612,
10613,
10614,
10615,
10616,
10617,
10618,
10619,
10620,
10621,
10622,
10623,
10624,
10625,
10626,
10627,
10628,
10629,
10630,
10631,
10632,
10633,
10634,
10635,
10636,
10637,
10638,
10639,
10640,
10641,
10642,
10643,
10644,
10645,
10646,
10647,
10648,
10649,
10650,
10651,
10652,
10653,
10654,
10655,
10656,
10657,
10658,
10659,
10660,
10661,
10662,
10663,
10664,
10665,
10666,
10667,
10668,
10669,
10670,
10671,
10672,
10673,
10674,
10675,
10676,
10677,
10678,
10679,
10680,
10681,
10682,
10683,
10684,
10685,
10686,
10687,
10688,
10689,
10690,
10691,
10692,
10693,
10694,
10695,
10696,
10697,
10698,
10699,
10700,
10701,
10702,
10703,
10704,
10705,
10706,
10707,
10708,
10709,
10710,
10711,
10712,
10713,
10714,
10715,
10716,
10717,
10718,
10719,
10720,
10721,
10722,
10723,
10724,
10725,
10726,
10727,
10728,
10729,
10730,
10731,
10732,
10733,
10734,
10735,
10736,
10737,
10738,
10739,
10740,
10741,
10742,
10743,
10744,
10745,
10746,
10747,
10748,
10749,
10750,
10751,
10752,
10753,
10754,
10755,
10756,
10757,
10758,
10759,
10760,
10761,
10762,
10763,
10764,
10765,
10766,
10767,
10768,
10769,
10770,
10771,
10772,
10773,
10774,
10775,
10776,
10777,
10778,
10779,
10780,
10781,
10782,
10783,
10784,
10785,
10786,
10787,
10788,
10789,
10790,
10791,
10792,
10793,
10794,
10795,
10796,
10797,
10798,
10799,
10800,
10801,
10802,
10803,
10804,
10805,
10806,
10807,
10808,
10809,
10810,
10811,
10812,
10813,
10814,
10815,
10816,
10817,
10818,
10819,
10820,
10821,
10822,
10823,
10824,
10825,
10826,
10827,
10828,
10829,
10830,
10831,
10832,
10833,
10834,
10835,
10836,
10837,
10838,
10839,
10840,
10841,
10842,
10843,
10844,
10845,
10846,
10847,
10848,
10849,
10850,
10851,
10852,
10853,
10854,
10855,
10856,
10857,
10858,
10859,
10860,
10861,
10862,
10863,
10864,
10865,
10866,
10867,
10868,
10869,
10870,
10871,
10872,
10873,
10874

