*HEADING
ekate -> Abaqus interface
(c) 2016 Hoang-Giang Bui, Ruhr-University Bochum
*NODE
1,    4.00000,    4.00000,    0.00000
2,    4.00000,    3.50000,    0.00000
3,    3.50000,    4.00000,    0.00000
4,    3.50284,    3.50997,    0.00000
5,    4.00000,    3.00000,    0.00000
6,    3.00000,    4.00000,    0.00000
7,    3.51092,    3.02052,    0.00000
8,    3.00044,    3.51935,    0.00000
9,    3.01446,    3.03097,    0.00000
10,    4.00000,    2.50000,    0.00000
11,    2.50000,    4.00000,    0.00000
12,    2.51635,    3.51592,    0.00000
13,    3.49975,    2.51712,    0.00000
14,    3.00118,    2.54265,    0.00000
15,    2.50729,    3.02912,    0.00000
16,    4.00000,    2.00000,    0.00000
17,    2.00000,    4.00000,    0.00000
18,    3.49142,    2.02835,    0.00000
19,    2.01165,    3.51274,    0.00000
20,    2.48589,    2.53679,    0.00000
21,    2.98143,    2.04520,    0.00000
22,    1.99706,    3.01044,    0.00000
23,    4.00000,    1.50000,    0.00000
24,    1.50000,    4.00000,    0.00000
25,    2.46055,    2.02681,    0.00000
26,    1.96095,    2.51144,    0.00000
27,    3.48706,    1.52694,    0.00000
28,    1.49569,    3.48786,    0.00000
29,    2.97122,    1.53961,    0.00000
30,    1.46842,    2.98933,    0.00000
31,    1.92644,    2.00502,    0.00000
32,    2.44844,    1.52021,    0.00000
33,    1.43439,    2.49354,    0.00000
34,    4.00000,    1.00000,    0.00000
35,    1.00000,    4.00000,    0.00000
36,    3.49267,    1.02568,    0.00000
37,    1.00340,    3.48100,    0.00000
38,    2.97263,    1.03733,    0.00000
39,    0.97326,    2.97545,    0.00000
40,    1.90497,    1.46063,    0.00000
41,    1.37703,    1.96689,    0.00000
42,    2.46487,    1.01351,    0.00000
43,    0.93335,    2.47871,    0.00000
44,    4.00000,    0.50000,    0.00000
45,    0.50000,    4.00000,    0.00000
46,    3.50071,    0.52275,    0.00000
47,    0.49447,    3.48953,    0.00000
48,    2.98135,    0.51551,    0.00000
49,    0.48860,    2.98437,    0.00000
50,    1.95897,    0.95808,    0.00000
51,    0.87961,    1.99841,    0.00000
52,    1.28602,    1.35921,    0.00000
53,    2.48412,    0.50967,    0.00000
54,    0.46232,    2.48410,    0.00000
55,    4.00000,    0.00000,    0.00000
56,    0.00000,    4.00000,    0.00000
57,    1.48551,    0.84993,    0.00000
58,    3.50170,    0.00000,    0.00000
59,    0.00000,    3.50170,    0.00000
60,    2.00264,    0.47494,    0.00000
61,    0.78182,    1.52225,    0.00000
62,    0.42626,    2.02578,    0.00000
63,    3.00340,    0.00000,    0.00000
64,    0.00000,    3.00340,    0.00000
65,    2.50510,    0.00000,    0.00000
66,    0.00000,    2.50510,    0.00000
67,    0.93540,    0.96761,    0.00000
68,    1.58316,    0.40857,    0.00000
69,    0.38083,    1.60688,    0.00000
70,    1.12331,    0.66149,    0.00000
71,    0.62518,    1.14264,    0.00000
72,    2.03639,    0.00000,    0.00000
73,    0.00000,    2.03639,    0.00000
74,    1.23733,    0.33061,    0.00000
75,    0.31523,    1.24803,    0.00000
76,    1.63146,    0.00000,    0.00000
77,    0.00000,    1.63146,    0.00000
78,    0.70711,    0.70711,    0.00000
79,    0.86603,    0.50000,    0.00000
80,    0.50000,    0.86603,    0.00000
81,    0.96593,    0.25882,    0.00000
82,    0.25882,    0.96593,    0.00000
83,    1.28764,    0.00000,    0.00000
84,    0.00000,    1.28764,    0.00000
85,    1.00000,    0.00000,    0.00000
86,    0.00000,    1.00000,    0.00000
**
*ELEMENT, TYPE=S4
1, 86, 82, 75, 84
*ELEMENT, TYPE=S4
2, 81, 85, 83, 74
*ELEMENT, TYPE=S4
3, 82, 80, 71, 75
*ELEMENT, TYPE=S4
4, 79, 81, 74, 70
*ELEMENT, TYPE=S4
5, 80, 78, 67, 71
*ELEMENT, TYPE=S4
6, 78, 79, 70, 67
*ELEMENT, TYPE=S4
7, 77, 84, 75, 69
*ELEMENT, TYPE=S4
8, 83, 76, 68, 74
*ELEMENT, TYPE=S4
9, 73, 77, 69, 62
*ELEMENT, TYPE=S4
10, 76, 72, 60, 68
*ELEMENT, TYPE=S4
11, 66, 73, 62, 54
*ELEMENT, TYPE=S4
12, 72, 65, 53, 60
*ELEMENT, TYPE=S4
13, 58, 55, 44, 46
*ELEMENT, TYPE=S4
14, 56, 59, 47, 45
*ELEMENT, TYPE=S4
15, 64, 66, 54, 49
*ELEMENT, TYPE=S4
16, 59, 64, 49, 47
*ELEMENT, TYPE=S4
17, 65, 63, 48, 53
*ELEMENT, TYPE=S4
18, 63, 58, 46, 48
*ELEMENT, TYPE=S4
19, 2, 1, 3, 4
*ELEMENT, TYPE=S4
20, 35, 45, 47, 37
*ELEMENT, TYPE=S4
21, 44, 34, 36, 46
*ELEMENT, TYPE=S4
22, 5, 2, 4, 7
*ELEMENT, TYPE=S4
23, 24, 35, 37, 28
*ELEMENT, TYPE=S4
24, 34, 23, 27, 36
*ELEMENT, TYPE=S4
25, 10, 5, 7, 13
*ELEMENT, TYPE=S4
26, 3, 6, 8, 4
*ELEMENT, TYPE=S4
27, 17, 24, 28, 19
*ELEMENT, TYPE=S4
28, 23, 16, 18, 27
*ELEMENT, TYPE=S4
29, 16, 10, 13, 18
*ELEMENT, TYPE=S4
30, 6, 11, 12, 8
*ELEMENT, TYPE=S4
31, 11, 17, 19, 12
*ELEMENT, TYPE=S4
32, 75, 71, 61, 69
*ELEMENT, TYPE=S4
33, 71, 67, 52, 61
*ELEMENT, TYPE=S4
34, 70, 74, 68, 57
*ELEMENT, TYPE=S4
35, 67, 70, 57, 52
*ELEMENT, TYPE=S4
36, 48, 46, 36, 38
*ELEMENT, TYPE=S4
37, 62, 69, 61, 51
*ELEMENT, TYPE=S4
38, 68, 60, 50, 57
*ELEMENT, TYPE=S4
39, 54, 62, 51, 43
*ELEMENT, TYPE=S4
40, 37, 47, 49, 39
*ELEMENT, TYPE=S4
41, 49, 54, 43, 39
*ELEMENT, TYPE=S4
42, 28, 37, 39, 30
*ELEMENT, TYPE=S4
43, 19, 28, 30, 22
*ELEMENT, TYPE=S4
44, 60, 53, 42, 50
*ELEMENT, TYPE=S4
45, 53, 48, 38, 42
*ELEMENT, TYPE=S4
46, 4, 8, 9, 7
*ELEMENT, TYPE=S4
47, 13, 7, 9, 14
*ELEMENT, TYPE=S4
48, 18, 13, 14, 21
*ELEMENT, TYPE=S4
49, 27, 18, 21, 29
*ELEMENT, TYPE=S4
50, 36, 27, 29, 38
*ELEMENT, TYPE=S4
51, 12, 19, 22, 15
*ELEMENT, TYPE=S4
52, 8, 12, 15, 9
*ELEMENT, TYPE=S4
53, 52, 57, 50, 40
*ELEMENT, TYPE=S4
54, 14, 9, 15, 20
*ELEMENT, TYPE=S4
55, 30, 39, 43, 33
*ELEMENT, TYPE=S4
56, 22, 30, 33, 26
*ELEMENT, TYPE=S4
57, 15, 22, 26, 20
*ELEMENT, TYPE=S4
58, 51, 61, 52, 41
*ELEMENT, TYPE=S4
59, 43, 51, 41, 33
*ELEMENT, TYPE=S4
60, 41, 52, 40, 31
*ELEMENT, TYPE=S4
61, 21, 14, 20, 25
*ELEMENT, TYPE=S4
62, 29, 21, 25, 32
*ELEMENT, TYPE=S4
63, 38, 29, 32, 42
*ELEMENT, TYPE=S4
64, 50, 42, 32, 40
*ELEMENT, TYPE=S4
65, 40, 32, 25, 31
*ELEMENT, TYPE=S4
66, 25, 20, 26, 31
*ELEMENT, TYPE=S4
67, 31, 26, 33, 41
*ELEMENT, TYPE=B31
68, 55, 44
*ELEMENT, TYPE=B31
69, 44, 34
*ELEMENT, TYPE=B31
70, 34, 23
*ELEMENT, TYPE=B31
71, 23, 16
*ELEMENT, TYPE=B31
72, 16, 10
*ELEMENT, TYPE=B31
73, 10, 5
*ELEMENT, TYPE=B31
74, 5, 2
*ELEMENT, TYPE=B31
75, 2, 1
*ELEMENT, TYPE=B31
76, 1, 3
*ELEMENT, TYPE=B31
77, 3, 6
*ELEMENT, TYPE=B31
78, 6, 11
*ELEMENT, TYPE=B31
79, 11, 17
*ELEMENT, TYPE=B31
80, 17, 24
*ELEMENT, TYPE=B31
81, 24, 35
*ELEMENT, TYPE=B31
82, 35, 45
*ELEMENT, TYPE=B31
83, 45, 56
**

*MATERIAL,NAME=TrussProperties
*MATERIAL,NAME=Isotropic3D
*MATERIAL,NAME=DruckerPrager
*MATERIAL,NAME=UserDefined
*MATERIAL,NAME=IsotropicDamage3D
*MATERIAL,NAME=GroutingMortar
*MATERIAL,NAME=TutorialDamageModel
*MATERIAL,NAME=Force1
*MATERIAL,NAME=Force2

*ELSET,ELSET=Isotropic3D_Set
1,
2,
3,
4,
5,
6,
7,
8,
9,
10,
11,
12,
13,
14,
15,
16,
17,
18,
19,
20,
21,
22,
23,
24,
25,
26,
27,
28,
29,
30,
31,
32,
33,
34,
35,
36,
37,
38,
39,
40,
41,
42,
43,
44,
45,
46,
47,
48,
49,
50,
51,
52,
53,
54,
55,
56,
57,
58,
59,
60,
61,
62,
63,
64,
65,
66,
67,
*ELSET,ELSET=Force1_Set
68,
69,
70,
71,
72,
73,
74,
75,
*ELSET,ELSET=Force2_Set
76,
77,
78,
79,
80,
81,
82,
83,

