*HEADING
sd -> Abaqus interface
(c) 2016 Hoang-Giang Bui, Ruhr-University Bochum
*NODE
1,   60.00000,   20.00000,    0.00000
2,   60.00000,   19.00000,    0.00000
3,   59.00000,   20.00000,    0.00000
4,   59.00000,   19.00000,    0.00000
5,   60.00000,   18.00000,    0.00000
6,   58.00000,   20.00000,    0.00000
7,   59.00000,   18.00000,    0.00000
8,   58.00000,   19.00000,    0.00000
9,   58.00000,   18.00000,    0.00000
10,   60.00000,   17.00000,    0.00000
11,   57.00000,   20.00000,    0.00000
12,   59.00000,   17.00000,    0.00000
13,   57.00000,   19.00000,    0.00000
14,   58.00000,   17.00000,    0.00000
15,   57.00000,   18.00000,    0.00000
16,   60.00000,   16.00000,    0.00000
17,   56.00000,   20.00000,    0.00000
18,   59.00000,   16.00000,    0.00000
19,   56.00000,   19.00000,    0.00000
20,   57.00000,   17.00000,    0.00000
21,   58.00000,   16.00000,    0.00000
22,   56.00000,   18.00000,    0.00000
23,   60.00000,   15.00000,    0.00000
24,   55.00000,   20.00000,    0.00000
25,   57.00000,   16.00000,    0.00000
26,   56.00000,   17.00000,    0.00000
27,   59.00000,   15.00000,    0.00000
28,   55.00000,   19.00000,    0.00000
29,   58.00000,   15.00000,    0.00000
30,   55.00000,   18.00000,    0.00000
31,   56.00000,   16.00000,    0.00000
32,   57.00000,   15.00000,    0.00000
33,   55.00000,   17.00000,    0.00000
34,   60.00000,   14.00000,    0.00000
35,   54.00000,   20.00000,    0.00000
36,   59.00000,   14.00000,    0.00000
37,   54.00000,   19.00000,    0.00000
38,   58.00000,   14.00000,    0.00000
39,   54.00000,   18.00000,    0.00000
40,   56.00000,   15.00000,    0.00000
41,   55.00000,   16.00000,    0.00000
42,   57.00000,   14.00000,    0.00000
43,   54.00000,   17.00000,    0.00000
44,   60.00000,   13.00000,    0.00000
45,   53.00000,   20.00000,    0.00000
46,   59.00000,   13.00000,    0.00000
47,   53.00000,   19.00000,    0.00000
48,   55.00000,   15.00000,    0.00000
49,   56.00000,   14.00000,    0.00000
50,   54.00000,   16.00000,    0.00000
51,   58.00000,   13.00000,    0.00000
52,   53.00000,   18.00000,    0.00000
53,   57.00000,   13.00000,    0.00000
54,   53.00000,   17.00000,    0.00000
55,   55.00000,   14.00000,    0.00000
56,   54.00000,   15.00000,    0.00000
57,   60.00000,   12.00000,    0.00000
58,   52.00000,   20.00000,    0.00000
59,   59.00000,   12.00000,    0.00000
60,   52.00000,   19.00000,    0.00000
61,   56.00000,   13.00000,    0.00000
62,   53.00000,   16.00000,    0.00000
63,   58.00000,   12.00000,    0.00000
64,   52.00000,   18.00000,    0.00000
65,   54.00000,   14.00000,    0.00000
66,   57.00000,   12.00000,    0.00000
67,   52.00000,   17.00000,    0.00000
68,   55.00000,   13.00000,    0.00000
69,   53.00000,   15.00000,    0.00000
70,   56.00000,   12.00000,    0.00000
71,   52.00000,   16.00000,    0.00000
72,   60.00000,   11.00000,    0.00000
73,   51.00000,   20.00000,    0.00000
74,   59.00000,   11.00000,    0.00000
75,   51.00000,   19.00000,    0.00000
76,   58.00000,   11.00000,    0.00000
77,   54.00000,   13.00000,    0.00000
78,   51.00000,   18.00000,    0.00000
79,   53.00000,   14.00000,    0.00000
80,   55.00000,   12.00000,    0.00000
81,   52.00000,   15.00000,    0.00000
82,   57.00000,   11.00000,    0.00000
83,   51.00000,   17.00000,    0.00000
84,   56.00000,   11.00000,    0.00000
85,   51.00000,   16.00000,    0.00000
86,   53.00000,   13.00000,    0.00000
87,   60.00000,   10.00000,    0.00000
88,   50.00000,   20.00000,    0.00000
89,   54.00000,   12.00000,    0.00000
90,   52.00000,   14.00000,    0.00000
91,   59.00000,   10.00000,    0.00000
92,   50.00000,   19.00000,    0.00000
93,   58.00000,   10.00000,    0.00000
94,   50.00000,   18.00000,    0.00000
95,   55.00000,   11.00000,    0.00000
96,   51.00000,   15.00000,    0.00000
97,   57.00000,   10.00000,    0.00000
98,   50.00000,   17.00000,    0.00000
99,   53.00000,   12.00000,    0.00000
100,   52.00000,   13.00000,    0.00000
101,   56.00000,   10.00000,    0.00000
102,   50.00000,   16.00000,    0.00000
103,   54.00000,   11.00000,    0.00000
104,   51.00000,   14.00000,    0.00000
105,   60.00000,    9.00000,    0.00000
106,   49.00000,   20.00000,    0.00000
107,   59.00000,    9.00000,    0.00000
108,   49.00000,   19.00000,    0.00000
109,   58.00000,    9.00000,    0.00000
110,   55.00000,   10.00000,    0.00000
111,   49.00000,   18.00000,    0.00000
112,   50.00000,   15.00000,    0.00000
113,   52.00000,   12.00000,    0.00000
114,   57.00000,    9.00000,    0.00000
115,   53.00000,   11.00000,    0.00000
116,   51.00000,   13.00000,    0.00000
117,   49.00000,   17.00000,    0.00000
118,   54.00000,   10.00000,    0.00000
119,   50.00000,   14.00000,    0.00000
120,   56.00000,    9.00000,    0.00000
121,   49.00000,   16.00000,    0.00000
122,   60.00000,    8.00000,    0.00000
123,   48.00000,   20.00000,    0.00000
124,   59.00000,    8.00000,    0.00000
125,   52.00000,   11.00000,    0.00000
126,   48.00000,   19.00000,    0.00000
127,   51.00000,   12.00000,    0.00000
128,   55.00000,    9.00000,    0.00000
129,   49.00000,   15.00000,    0.00000
130,   58.00000,    8.00000,    0.00000
131,   48.00000,   18.00000,    0.00000
132,   53.00000,   10.00000,    0.00000
133,   50.00000,   13.00000,    0.00000
134,   57.00000,    8.00000,    0.00000
135,   48.00000,   17.00000,    0.00000
136,   54.00000,    9.00000,    0.00000
137,   49.00000,   14.00000,    0.00000
138,   56.00000,    8.00000,    0.00000
139,   48.00000,   16.00000,    0.00000
140,   51.00000,   11.00000,    0.00000
141,   52.00000,   10.00000,    0.00000
142,   50.00000,   12.00000,    0.00000
143,   55.00000,    8.00000,    0.00000
144,   60.00000,    7.00000,    0.00000
145,   47.00000,   20.00000,    0.00000
146,   48.00000,   15.00000,    0.00000
147,   53.00000,    9.00000,    0.00000
148,   59.00000,    7.00000,    0.00000
149,   47.00000,   19.00000,    0.00000
150,   49.00000,   13.00000,    0.00000
151,   58.00000,    7.00000,    0.00000
152,   47.00000,   18.00000,    0.00000
153,   57.00000,    7.00000,    0.00000
154,   47.00000,   17.00000,    0.00000
155,   54.00000,    8.00000,    0.00000
156,   48.00000,   14.00000,    0.00000
157,   51.00000,   10.00000,    0.00000
158,   50.00000,   11.00000,    0.00000
159,   56.00000,    7.00000,    0.00000
160,   52.00000,    9.00000,    0.00000
161,   49.00000,   12.00000,    0.00000
162,   47.00000,   16.00000,    0.00000
163,   53.00000,    8.00000,    0.00000
164,   48.00000,   13.00000,    0.00000
165,   55.00000,    7.00000,    0.00000
166,   47.00000,   15.00000,    0.00000
167,   60.00000,    6.00000,    0.00000
168,   46.00000,   20.00000,    0.00000
169,   59.00000,    6.00000,    0.00000
170,   46.00000,   19.00000,    0.00000
171,   58.00000,    6.00000,    0.00000
172,   50.00000,   10.00000,    0.00000
173,   46.00000,   18.00000,    0.00000
174,   51.00000,    9.00000,    0.00000
175,   49.00000,   11.00000,    0.00000
176,   54.00000,    7.00000,    0.00000
177,   57.00000,    6.00000,    0.00000
178,   46.00000,   17.00000,    0.00000
179,   47.00000,   14.00000,    0.00000
180,   52.00000,    8.00000,    0.00000
181,   48.00000,   12.00000,    0.00000
182,   56.00000,    6.00000,    0.00000
183,   46.00000,   16.00000,    0.00000
184,   53.00000,    7.00000,    0.00000
185,   47.00000,   13.00000,    0.00000
186,   55.00000,    6.00000,    0.00000
187,   50.00000,    9.00000,    0.00000
188,   49.00000,   10.00000,    0.00000
189,   46.00000,   15.00000,    0.00000
190,   51.00000,    8.00000,    0.00000
191,   60.00000,    5.00000,    0.00000
192,   45.00000,   20.00000,    0.00000
193,   48.00000,   11.00000,    0.00000
194,   59.00000,    5.00000,    0.00000
195,   45.00000,   19.00000,    0.00000
196,   58.00000,    5.00000,    0.00000
197,   45.00000,   18.00000,    0.00000
198,   54.00000,    6.00000,    0.00000
199,   46.00000,   14.00000,    0.00000
200,   52.00000,    7.00000,    0.00000
201,   47.00000,   12.00000,    0.00000
202,   57.00000,    5.00000,    0.00000
203,   45.00000,   17.00000,    0.00000
204,   56.00000,    5.00000,    0.00000
205,   45.00000,   16.00000,    0.00000
206,   49.00000,    9.00000,    0.00000
207,   50.00000,    8.00000,    0.00000
208,   48.00000,   10.00000,    0.00000
209,   53.00000,    6.00000,    0.00000
210,   46.00000,   13.00000,    0.00000
211,   51.00000,    7.00000,    0.00000
212,   55.00000,    5.00000,    0.00000
213,   47.00000,   11.00000,    0.00000
214,   45.00000,   15.00000,    0.00000
215,   60.00000,    4.00000,    0.00000
216,   44.00000,   20.00000,    0.00000
217,   59.00000,    4.00000,    0.00000
218,   44.00000,   19.00000,    0.00000
219,   52.00000,    6.00000,    0.00000
220,   58.00000,    4.00000,    0.00000
221,   46.00000,   12.00000,    0.00000
222,   44.00000,   18.00000,    0.00000
223,   54.00000,    5.00000,    0.00000
224,   45.00000,   14.00000,    0.00000
225,   49.00000,    8.00000,    0.00000
226,   57.00000,    4.00000,    0.00000
227,   48.00000,    9.00000,    0.00000
228,   44.00000,   17.00000,    0.00000
229,   50.00000,    7.00000,    0.00000
230,   47.00000,   10.00000,    0.00000
231,   56.00000,    4.00000,    0.00000
232,   44.00000,   16.00000,    0.00000
233,   53.00000,    5.00000,    0.00000
234,   45.00000,   13.00000,    0.00000
235,   51.00000,    6.00000,    0.00000
236,   46.00000,   11.00000,    0.00000
237,   55.00000,    4.00000,    0.00000
238,   44.00000,   15.00000,    0.00000
239,   48.00000,    8.00000,    0.00000
240,   52.00000,    5.00000,    0.00000
241,   60.00000,    3.00000,    0.00000
242,   43.00000,   20.00000,    0.00000
243,   45.00000,   12.00000,    0.00000
244,   49.00000,    7.00000,    0.00000
245,   47.00000,    9.00000,    0.00000
246,   59.00000,    3.00000,    0.00000
247,   43.00000,   19.00000,    0.00000
248,   54.00000,    4.00000,    0.00000
249,   44.00000,   14.00000,    0.00000
250,   58.00000,    3.00000,    0.00000
251,   43.00000,   18.00000,    0.00000
252,   50.00000,    6.00000,    0.00000
253,   46.00000,   10.00000,    0.00000
254,   57.00000,    3.00000,    0.00000
255,   43.00000,   17.00000,    0.00000
256,   53.00000,    4.00000,    0.00000
257,   56.00000,    3.00000,    0.00000
258,   44.00000,   13.00000,    0.00000
259,   43.00000,   16.00000,    0.00000
260,   51.00000,    5.00000,    0.00000
261,   45.00000,   11.00000,    0.00000
262,   48.00000,    7.00000,    0.00000
263,   47.00000,    8.00000,    0.00000
264,   55.00000,    3.00000,    0.00000
265,   43.00000,   15.00000,    0.00000
266,   49.00000,    6.00000,    0.00000
267,   46.00000,    9.00000,    0.00000
268,   52.00000,    4.00000,    0.00000
269,   44.00000,   12.00000,    0.00000
270,   60.00000,    2.00000,    0.00000
271,   42.00000,   20.00000,    0.00000
272,   50.00000,    5.00000,    0.00000
273,   54.00000,    3.00000,    0.00000
274,   59.00000,    2.00000,    0.00000
275,   45.00000,   10.00000,    0.00000
276,   42.00000,   19.00000,    0.00000
277,   43.00000,   14.00000,    0.00000
278,   58.00000,    2.00000,    0.00000
279,   42.00000,   18.00000,    0.00000
280,   57.00000,    2.00000,    0.00000
281,   42.00000,   17.00000,    0.00000
282,   51.00000,    4.00000,    0.00000
283,   44.00000,   11.00000,    0.00000
284,   53.00000,    3.00000,    0.00000
285,   47.00000,    7.00000,    0.00000
286,   43.00000,   13.00000,    0.00000
287,   48.00000,    6.00000,    0.00000
288,   46.00000,    8.00000,    0.00000
289,   56.00000,    2.00000,    0.00000
290,   42.00000,   16.00000,    0.00000
291,   49.00000,    5.00000,    0.00000
292,   45.00000,    9.00000,    0.00000
293,   55.00000,    2.00000,    0.00000
294,   42.00000,   15.00000,    0.00000
295,   52.00000,    3.00000,    0.00000
296,   43.00000,   12.00000,    0.00000
297,   50.00000,    4.00000,    0.00000
298,   44.00000,   10.00000,    0.00000
299,   54.00000,    2.00000,    0.00000
300,   42.00000,   14.00000,    0.00000
301,   60.00000,    1.00000,    0.00000
302,   41.00000,   20.00000,    0.00000
303,   59.00000,    1.00000,    0.00000
304,   41.00000,   19.00000,    0.00000
305,   47.00000,    6.00000,    0.00000
306,   46.00000,    7.00000,    0.00000
307,   58.00000,    1.00000,    0.00000
308,   41.00000,   18.00000,    0.00000
309,   48.00000,    5.00000,    0.00000
310,   45.00000,    8.00000,    0.00000
311,   51.00000,    3.00000,    0.00000
312,   57.00000,    1.00000,    0.00000
313,   43.00000,   11.00000,    0.00000
314,   41.00000,   17.00000,    0.00000
315,   53.00000,    2.00000,    0.00000
316,   42.00000,   13.00000,    0.00000
317,   49.00000,    4.00000,    0.00000
318,   44.00000,    9.00000,    0.00000
319,   56.00000,    1.00000,    0.00000
320,   41.00000,   16.00000,    0.00000
321,   55.00000,    1.00000,    0.00000
322,   41.00000,   15.00000,    0.00000
323,   52.00000,    2.00000,    0.00000
324,   42.00000,   12.00000,    0.00000
325,   50.00000,    3.00000,    0.00000
326,   43.00000,   10.00000,    0.00000
327,   46.00000,    6.00000,    0.00000
328,   47.00000,    5.00000,    0.00000
329,   45.00000,    7.00000,    0.00000
330,   54.00000,    1.00000,    0.00000
331,   41.00000,   14.00000,    0.00000
332,   48.00000,    4.00000,    0.00000
333,   44.00000,    8.00000,    0.00000
334,   60.00000,    0.00000,    0.00000
335,   40.00000,   20.00000,    0.00000
336,   59.00000,    0.00000,    0.00000
337,   40.00000,   19.00000,    0.00000
338,   58.00000,    0.00000,    0.00000
339,   40.00000,   18.00000,    0.00000
340,   51.00000,    2.00000,    0.00000
341,   42.00000,   11.00000,    0.00000
342,   57.00000,    0.00000,    0.00000
343,   40.00000,   17.00000,    0.00000
344,   49.00000,    3.00000,    0.00000
345,   53.00000,    1.00000,    0.00000
346,   43.00000,    9.00000,    0.00000
347,   41.00000,   13.00000,    0.00000
348,   56.00000,    0.00000,    0.00000
349,   40.00000,   16.00000,    0.00000
350,   46.00000,    5.00000,    0.00000
351,   45.00000,    6.00000,    0.00000
352,   50.00000,    2.00000,    0.00000
353,   42.00000,   10.00000,    0.00000
354,   47.00000,    4.00000,    0.00000
355,   44.00000,    7.00000,    0.00000
356,   52.00000,    1.00000,    0.00000
357,   55.00000,    0.00000,    0.00000
358,   41.00000,   12.00000,    0.00000
359,   40.00000,   15.00000,    0.00000
360,   48.00000,    3.00000,    0.00000
361,   43.00000,    8.00000,    0.00000
362,   54.00000,    0.00000,    0.00000
363,   40.00000,   14.00000,    0.00000
364,   39.00000,   20.00000,    0.00000
365,   51.00000,    1.00000,    0.00000
366,   39.00000,   19.00000,    0.00000
367,   41.00000,   11.00000,    0.00000
368,   49.00000,    2.00000,    0.00000
369,   42.00000,    9.00000,    0.00000
370,   39.00000,   18.00000,    0.00000
371,   53.00000,    0.00000,    0.00000
372,   40.00000,   13.00000,    0.00000
373,   45.00000,    5.00000,    0.00000
374,   39.00000,   17.00000,    0.00000
375,   46.00000,    4.00000,    0.00000
376,   44.00000,    6.00000,    0.00000
377,   39.00000,   16.00000,    0.00000
378,   47.00000,    3.00000,    0.00000
379,   43.00000,    7.00000,    0.00000
380,   50.00000,    1.00000,    0.00000
381,   41.00000,   10.00000,    0.00000
382,   52.00000,    0.00000,    0.00000
383,   40.00000,   12.00000,    0.00000
384,   39.00000,   15.00000,    0.00000
385,   48.00000,    2.00000,    0.00000
386,   42.00000,    8.00000,    0.00000
387,   39.00000,   14.00000,    0.00000
388,   45.00000,    4.00000,    0.00000
389,   44.00000,    5.00000,    0.00000
390,   51.00000,    0.00000,    0.00000
391,   40.00000,   11.00000,    0.00000
392,   49.00000,    1.00000,    0.00000
393,   41.00000,    9.00000,    0.00000
394,   38.00000,   20.00000,    0.00000
395,   46.00000,    3.00000,    0.00000
396,   43.00000,    6.00000,    0.00000
397,   38.00000,   19.00000,    0.00000
398,   38.00000,   18.00000,    0.00000
399,   39.00000,   13.00000,    0.00000
400,   47.00000,    2.00000,    0.00000
401,   42.00000,    7.00000,    0.00000
402,   38.00000,   17.00000,    0.00000
403,   50.00000,    0.00000,    0.00000
404,   40.00000,   10.00000,    0.00000
405,   38.00000,   16.00000,    0.00000
406,   48.00000,    1.00000,    0.00000
407,   41.00000,    8.00000,    0.00000
408,   39.00000,   12.00000,    0.00000
409,   38.00000,   15.00000,    0.00000
410,   44.00000,    4.00000,    0.00000
411,   45.00000,    3.00000,    0.00000
412,   43.00000,    5.00000,    0.00000
413,   42.00000,    6.00000,    0.00000
414,   46.00000,    2.00000,    0.00000
415,   38.00000,   14.00000,    0.00000
416,   40.00000,    9.00000,    0.00000
417,   49.00000,    0.00000,    0.00000
418,   39.00000,   11.00000,    0.00000
419,   37.00000,   20.00000,    0.00000
420,   41.00000,    7.00000,    0.00000
421,   47.00000,    1.00000,    0.00000
422,   37.00000,   19.00000,    0.00000
423,   37.00000,   18.00000,    0.00000
424,   38.00000,   13.00000,    0.00000
425,   37.00000,   17.00000,    0.00000
426,   39.00000,   10.00000,    0.00000
427,   40.00000,    8.00000,    0.00000
428,   48.00000,    0.00000,    0.00000
429,   43.00000,    4.00000,    0.00000
430,   44.00000,    3.00000,    0.00000
431,   37.00000,   16.00000,    0.00000
432,   38.00000,   12.00000,    0.00000
433,   42.00000,    5.00000,    0.00000
434,   45.00000,    2.00000,    0.00000
435,   37.00000,   15.00000,    0.00000
436,   41.00000,    6.00000,    0.00000
437,   46.00000,    1.00000,    0.00000
438,   39.00000,    9.00000,    0.00000
439,   38.00000,   11.00000,    0.00000
440,   37.00000,   14.00000,    0.00000
441,   40.00000,    7.00000,    0.00000
442,   47.00000,    0.00000,    0.00000
443,   36.00000,   20.00000,    0.00000
444,   36.00000,   19.00000,    0.00000
445,   43.00000,    3.00000,    0.00000
446,   37.00000,   13.00000,    0.00000
447,   42.00000,    4.00000,    0.00000
448,   44.00000,    2.00000,    0.00000
449,   36.00000,   18.00000,    0.00000
450,   38.00000,   10.00000,    0.00000
451,   39.00000,    8.00000,    0.00000
452,   36.00000,   17.00000,    0.00000
453,   41.00000,    5.00000,    0.00000
454,   45.00000,    1.00000,    0.00000
455,   36.00000,   16.00000,    0.00000
456,   37.00000,   12.00000,    0.00000
457,   40.00000,    6.00000,    0.00000
458,   46.00000,    0.00000,    0.00000
459,   36.00000,   15.00000,    0.00000
460,   38.00000,    9.00000,    0.00000
461,   39.00000,    7.00000,    0.00000
462,   37.00000,   11.00000,    0.00000
463,   36.00000,   14.00000,    0.00000
464,   42.00000,    3.00000,    0.00000
465,   43.00000,    2.00000,    0.00000
466,   41.00000,    4.00000,    0.00000
467,   44.00000,    1.00000,    0.00000
468,   40.00000,    5.00000,    0.00000
469,   45.00000,    0.00000,    0.00000
470,   35.00000,   20.00000,    0.00000
471,   36.00000,   13.00000,    0.00000
472,   35.00000,   19.00000,    0.00000
473,   38.00000,    8.00000,    0.00000
474,   37.00000,   10.00000,    0.00000
475,   35.00000,   18.00000,    0.00000
476,   35.00000,   17.00000,    0.00000
477,   39.00000,    6.00000,    0.00000
478,   36.00000,   12.00000,    0.00000
479,   35.00000,   16.00000,    0.00000
480,   42.00000,    2.00000,    0.00000
481,   41.00000,    3.00000,    0.00000
482,   43.00000,    1.00000,    0.00000
483,   37.00000,    9.00000,    0.00000
484,   35.00000,   15.00000,    0.00000
485,   38.00000,    7.00000,    0.00000
486,   40.00000,    4.00000,    0.00000
487,   44.00000,    0.00000,    0.00000
488,   36.00000,   11.00000,    0.00000
489,   35.00000,   14.00000,    0.00000
490,   39.00000,    5.00000,    0.00000
491,   37.00000,    8.00000,    0.00000
492,   35.00000,   13.00000,    0.00000
493,   34.00000,   20.00000,    0.00000
494,   36.00000,   10.00000,    0.00000
495,   34.00000,   19.00000,    0.00000
496,   38.00000,    6.00000,    0.00000
497,   34.00000,   18.00000,    0.00000
498,   41.00000,    2.00000,    0.00000
499,   42.00000,    1.00000,    0.00000
500,   34.00000,   17.00000,    0.00000
501,   40.00000,    3.00000,    0.00000
502,   43.00000,    0.00000,    0.00000
503,   35.00000,   12.00000,    0.00000
504,   34.00000,   16.00000,    0.00000
505,   39.00000,    4.00000,    0.00000
506,   36.00000,    9.00000,    0.00000
507,   37.00000,    7.00000,    0.00000
508,   34.00000,   15.00000,    0.00000
509,   35.00000,   11.00000,    0.00000
510,   38.00000,    5.00000,    0.00000
511,   34.00000,   14.00000,    0.00000
512,   36.00000,    8.00000,    0.00000
513,   41.00000,    1.00000,    0.00000
514,   40.00000,    2.00000,    0.00000
515,   42.00000,    0.00000,    0.00000
516,   37.00000,    6.00000,    0.00000
517,   35.00000,   10.00000,    0.00000
518,   34.00000,   13.00000,    0.00000
519,   33.00000,   20.00000,    0.00000
520,   39.00000,    3.00000,    0.00000
521,   33.00000,   19.00000,    0.00000
522,   33.00000,   18.00000,    0.00000
523,   33.00000,   17.00000,    0.00000
524,   38.00000,    4.00000,    0.00000
525,   34.00000,   12.00000,    0.00000
526,   36.00000,    7.00000,    0.00000
527,   33.00000,   16.00000,    0.00000
528,   35.00000,    9.00000,    0.00000
529,   37.00000,    5.00000,    0.00000
530,   33.00000,   15.00000,    0.00000
531,   34.00000,   11.00000,    0.00000
532,   40.00000,    1.00000,    0.00000
533,   41.00000,    0.00000,    0.00000
534,   39.00000,    2.00000,    0.00000
535,   33.00000,   14.00000,    0.00000
536,   35.00000,    8.00000,    0.00000
537,   36.00000,    6.00000,    0.00000
538,   38.00000,    3.00000,    0.00000
539,   34.00000,   10.00000,    0.00000
540,   33.00000,   13.00000,    0.00000
541,   32.00000,   20.00000,    0.00000
542,   37.00000,    4.00000,    0.00000
543,   32.00000,   19.00000,    0.00000
544,   32.00000,   18.00000,    0.00000
545,   33.00000,   12.00000,    0.00000
546,   32.00000,   17.00000,    0.00000
547,   35.00000,    7.00000,    0.00000
548,   34.00000,    9.00000,    0.00000
549,   40.00000,    0.00000,    0.00000
550,   32.00000,   16.00000,    0.00000
551,   36.00000,    5.00000,    0.00000
552,   39.00000,    1.00000,    0.00000
553,   38.00000,    2.00000,    0.00000
554,   32.00000,   15.00000,    0.00000
555,   33.00000,   11.00000,    0.00000
556,   37.00000,    3.00000,    0.00000
557,   34.00000,    8.00000,    0.00000
558,   32.00000,   14.00000,    0.00000
559,   35.00000,    6.00000,    0.00000
560,   33.00000,   10.00000,    0.00000
561,   36.00000,    4.00000,    0.00000
562,   32.00000,   13.00000,    0.00000
563,   39.00000,    0.00000,    0.00000
564,   31.00000,   20.00000,    0.00000
565,   31.00000,   19.00000,    0.00000
566,   38.00000,    1.00000,    0.00000
567,   34.00000,    7.00000,    0.00000
568,   31.00000,   18.00000,    0.00000
569,   32.00000,   12.00000,    0.00000
570,   35.00000,    5.00000,    0.00000
571,   33.00000,    9.00000,    0.00000
572,   31.00000,   17.00000,    0.00000
573,   37.00000,    2.00000,    0.00000
574,   31.00000,   16.00000,    0.00000
575,   36.00000,    3.00000,    0.00000
576,   32.00000,   11.00000,    0.00000
577,   31.00000,   15.00000,    0.00000
578,   34.00000,    6.00000,    0.00000
579,   33.00000,    8.00000,    0.00000
580,   31.00000,   14.00000,    0.00000
581,   35.00000,    4.00000,    0.00000
582,   38.00000,    0.00000,    0.00000
583,   32.00000,   10.00000,    0.00000
584,   37.00000,    1.00000,    0.00000
585,   31.00000,   13.00000,    0.00000
586,   33.00000,    7.00000,    0.00000
587,   36.00000,    2.00000,    0.00000
588,   30.00000,   20.00000,    0.00000
589,   34.00000,    5.00000,    0.00000
590,   30.00000,   19.00000,    0.00000
591,   30.00000,   18.00000,    0.00000
592,   32.00000,    9.00000,    0.00000
593,   31.00000,   12.00000,    0.00000
594,   30.00000,   17.00000,    0.00000
595,   35.00000,    3.00000,    0.00000
596,   30.00000,   16.00000,    0.00000
597,   31.00000,   11.00000,    0.00000
598,   33.00000,    6.00000,    0.00000
599,   30.00000,   15.00000,    0.00000
600,   32.00000,    8.00000,    0.00000
601,   37.00000,    0.00000,    0.00000
602,   34.00000,    4.00000,    0.00000
603,   30.00000,   14.00000,    0.00000
604,   36.00000,    1.00000,    0.00000
605,   31.00000,   10.00000,    0.00000
606,   35.00000,    2.00000,    0.00000
607,   30.00000,   13.00000,    0.00000
608,   32.00000,    7.00000,    0.00000
609,   33.00000,    5.00000,    0.00000
610,   29.00000,   20.00000,    0.00000
611,   29.00000,   19.00000,    0.00000
612,   31.00000,    9.00000,    0.00000
613,   30.00000,   12.00000,    0.00000
614,   34.00000,    3.00000,    0.00000
615,   29.00000,   18.00000,    0.00000
616,   29.00000,   17.00000,    0.00000
617,   36.00000,    0.00000,    0.00000
618,   29.00000,   16.00000,    0.00000
619,   32.00000,    6.00000,    0.00000
620,   30.00000,   11.00000,    0.00000
621,   33.00000,    4.00000,    0.00000
622,   31.00000,    8.00000,    0.00000
623,   35.00000,    1.00000,    0.00000
624,   29.00000,   15.00000,    0.00000
625,   29.00000,   14.00000,    0.00000
626,   34.00000,    2.00000,    0.00000
627,   30.00000,   10.00000,    0.00000
628,   32.00000,    5.00000,    0.00000
629,   29.00000,   13.00000,    0.00000
630,   31.00000,    7.00000,    0.00000
631,   33.00000,    3.00000,    0.00000
632,   30.00000,    9.00000,    0.00000
633,   28.00000,   20.00000,    0.00000
634,   28.00000,   19.00000,    0.00000
635,   35.00000,    0.00000,    0.00000
636,   29.00000,   12.00000,    0.00000
637,   28.00000,   18.00000,    0.00000
638,   28.00000,   17.00000,    0.00000
639,   34.00000,    1.00000,    0.00000
640,   31.00000,    6.00000,    0.00000
641,   32.00000,    4.00000,    0.00000
642,   28.00000,   16.00000,    0.00000
643,   29.00000,   11.00000,    0.00000
644,   30.00000,    8.00000,    0.00000
645,   28.00000,   15.00000,    0.00000
646,   33.00000,    2.00000,    0.00000
647,   28.00000,   14.00000,    0.00000
648,   29.00000,   10.00000,    0.00000
649,   31.00000,    5.00000,    0.00000
650,   30.00000,    7.00000,    0.00000
651,   32.00000,    3.00000,    0.00000
652,   28.00000,   13.00000,    0.00000
653,   34.00000,    0.00000,    0.00000
654,   29.00000,    9.00000,    0.00000
655,   28.00000,   12.00000,    0.00000
656,   27.00000,   20.00000,    0.00000
657,   27.00000,   19.00000,    0.00000
658,   33.00000,    1.00000,    0.00000
659,   27.00000,   18.00000,    0.00000
660,   30.00000,    6.00000,    0.00000
661,   31.00000,    4.00000,    0.00000
662,   27.00000,   17.00000,    0.00000
663,   27.00000,   16.00000,    0.00000
664,   28.00000,   11.00000,    0.00000
665,   29.00000,    8.00000,    0.00000
666,   32.00000,    2.00000,    0.00000
667,   27.00000,   15.00000,    0.00000
668,   28.00000,   10.00000,    0.00000
669,   27.00000,   14.00000,    0.00000
670,   30.00000,    5.00000,    0.00000
671,   33.00000,    0.00000,    0.00000
672,   31.00000,    3.00000,    0.00000
673,   29.00000,    7.00000,    0.00000
674,   27.00000,   13.00000,    0.00000
675,   32.00000,    1.00000,    0.00000
676,   28.00000,    9.00000,    0.00000
677,   27.00000,   12.00000,    0.00000
678,   26.00000,   20.00000,    0.00000
679,   30.00000,    4.00000,    0.00000
680,   26.00000,   19.00000,    0.00000
681,   29.00000,    6.00000,    0.00000
682,   26.00000,   18.00000,    0.00000
683,   26.00000,   17.00000,    0.00000
684,   31.00000,    2.00000,    0.00000
685,   28.00000,    8.00000,    0.00000
686,   27.00000,   11.00000,    0.00000
687,   26.00000,   16.00000,    0.00000
688,   26.00000,   15.00000,    0.00000
689,   32.00000,    0.00000,    0.00000
690,   29.00000,    5.00000,    0.00000
691,   27.00000,   10.00000,    0.00000
692,   30.00000,    3.00000,    0.00000
693,   26.00000,   14.00000,    0.00000
694,   28.00000,    7.00000,    0.00000
695,   31.00000,    1.00000,    0.00000
696,   26.00000,   13.00000,    0.00000
697,   27.00000,    9.00000,    0.00000
698,   29.00000,    4.00000,    0.00000
699,   26.00000,   12.00000,    0.00000
700,   28.00000,    6.00000,    0.00000
701,   30.00000,    2.00000,    0.00000
702,   25.00000,   20.00000,    0.00000
703,   25.00000,   19.00000,    0.00000
704,   25.00000,   18.00000,    0.00000
705,   27.00000,    8.00000,    0.00000
706,   25.00000,   17.00000,    0.00000
707,   26.00000,   11.00000,    0.00000
708,   25.00000,   16.00000,    0.00000
709,   31.00000,    0.00000,    0.00000
710,   28.00000,    5.00000,    0.00000
711,   25.00000,   15.00000,    0.00000
712,   29.00000,    3.00000,    0.00000
713,   26.00000,   10.00000,    0.00000
714,   27.00000,    7.00000,    0.00000
715,   25.00000,   14.00000,    0.00000
716,   30.00000,    1.00000,    0.00000
717,   25.00000,   13.00000,    0.00000
718,   26.00000,    9.00000,    0.00000
719,   28.00000,    4.00000,    0.00000
720,   29.00000,    2.00000,    0.00000
721,   27.00000,    6.00000,    0.00000
722,   25.00000,   12.00000,    0.00000
723,   24.00000,   20.00000,    0.00000
724,   24.00000,   19.00000,    0.00000
725,   24.00000,   18.00000,    0.00000
726,   30.00000,    0.00000,    0.00000
727,   26.00000,    8.00000,    0.00000
728,   24.00000,   17.00000,    0.00000
729,   25.00000,   11.00000,    0.00000
730,   24.00000,   16.00000,    0.00000
731,   28.00000,    3.00000,    0.00000
732,   27.00000,    5.00000,    0.00000
733,   24.00000,   15.00000,    0.00000
734,   29.00000,    1.00000,    0.00000
735,   25.00000,   10.00000,    0.00000
736,   26.00000,    7.00000,    0.00000
737,   24.00000,   14.00000,    0.00000
738,   24.00000,   13.00000,    0.00000
739,   27.00000,    4.00000,    0.00000
740,   25.00000,    9.00000,    0.00000
741,   28.00000,    2.00000,    0.00000
742,   26.00000,    6.00000,    0.00000
743,   24.00000,   12.00000,    0.00000
744,   29.00000,    0.00000,    0.00000
745,   23.00000,   20.00000,    0.00000
746,   25.00000,    8.00000,    0.00000
747,   23.00000,   19.00000,    0.00000
748,   23.00000,   18.00000,    0.00000
749,   24.00000,   11.00000,    0.00000
750,   23.00000,   17.00000,    0.00000
751,   27.00000,    3.00000,    0.00000
752,   26.00000,    5.00000,    0.00000
753,   23.00000,   16.00000,    0.00000
754,   28.00000,    1.00000,    0.00000
755,   23.00000,   15.00000,    0.00000
756,   25.00000,    7.00000,    0.00000
757,   24.00000,   10.00000,    0.00000
758,   23.00000,   14.00000,    0.00000
759,   26.00000,    4.00000,    0.00000
760,   27.00000,    2.00000,    0.00000
761,   24.00000,    9.00000,    0.00000
762,   23.00000,   13.00000,    0.00000
763,   25.00000,    6.00000,    0.00000
764,   28.00000,    0.00000,    0.00000
765,   23.00000,   12.00000,    0.00000
766,   24.00000,    8.00000,    0.00000
767,   22.00000,   20.00000,    0.00000
768,   22.00000,   19.00000,    0.00000
769,   26.00000,    3.00000,    0.00000
770,   22.00000,   18.00000,    0.00000
771,   23.00000,   11.00000,    0.00000
772,   27.00000,    1.00000,    0.00000
773,   25.00000,    5.00000,    0.00000
774,   22.00000,   17.00000,    0.00000
775,   22.00000,   16.00000,    0.00000
776,   24.00000,    7.00000,    0.00000
777,   22.00000,   15.00000,    0.00000
778,   23.00000,   10.00000,    0.00000
779,   22.00000,   14.00000,    0.00000
780,   26.00000,    2.00000,    0.00000
781,   25.00000,    4.00000,    0.00000
782,   27.00000,    0.00000,    0.00000
783,   23.00000,    9.00000,    0.00000
784,   24.00000,    6.00000,    0.00000
785,   22.00000,   13.00000,    0.00000
786,   22.00000,   12.00000,    0.00000
787,   23.00000,    8.00000,    0.00000
788,   25.00000,    3.00000,    0.00000
789,   26.00000,    1.00000,    0.00000
790,   21.00000,   20.00000,    0.00000
791,   24.00000,    5.00000,    0.00000
792,   21.00000,   19.00000,    0.00000
793,   21.00000,   18.00000,    0.00000
794,   22.00000,   11.00000,    0.00000
795,   21.00000,   17.00000,    0.00000
796,   21.00000,   16.00000,    0.00000
797,   23.00000,    7.00000,    0.00000
798,   22.00000,   10.00000,    0.00000
799,   21.00000,   15.00000,    0.00000
800,   25.00000,    2.00000,    0.00000
801,   24.00000,    4.00000,    0.00000
802,   26.00000,    0.00000,    0.00000
803,   21.00000,   14.00000,    0.00000
804,   22.00000,    9.00000,    0.00000
805,   23.00000,    6.00000,    0.00000
806,   21.00000,   13.00000,    0.00000
807,   21.00000,   12.00000,    0.00000
808,   24.00000,    3.00000,    0.00000
809,   25.00000,    1.00000,    0.00000
810,   22.00000,    8.00000,    0.00000
811,   23.00000,    5.00000,    0.00000
812,   20.00000,   20.00000,    0.00000
813,   20.00000,   19.00000,    0.00000
814,   21.00000,   11.00000,    0.00000
815,   20.00000,   18.00000,    0.00000
816,   20.00000,   17.00000,    0.00000
817,   22.00000,    7.00000,    0.00000
818,   20.00000,   16.00000,    0.00000
819,   24.00000,    2.00000,    0.00000
820,   21.00000,   10.00000,    0.00000
821,   20.00000,   15.00000,    0.00000
822,   25.00000,    0.00000,    0.00000
823,   23.00000,    4.00000,    0.00000
824,   20.00000,   14.00000,    0.00000
825,   22.00000,    6.00000,    0.00000
826,   21.00000,    9.00000,    0.00000
827,   20.00000,   13.00000,    0.00000
828,   24.00000,    1.00000,    0.00000
829,   23.00000,    3.00000,    0.00000
830,   20.00000,   12.00000,    0.00000
831,   21.00000,    8.00000,    0.00000
832,   22.00000,    5.00000,    0.00000
833,   20.00000,   11.00000,    0.00000
834,   19.00000,   20.00000,    0.00000
835,   19.00000,   19.00000,    0.00000
836,   19.00000,   18.00000,    0.00000
837,   19.00000,   17.00000,    0.00000
838,   21.00000,    7.00000,    0.00000
839,   23.00000,    2.00000,    0.00000
840,   24.00000,    0.00000,    0.00000
841,   19.00000,   16.00000,    0.00000
842,   20.00000,   10.00000,    0.00000
843,   22.00000,    4.00000,    0.00000
844,   19.00000,   15.00000,    0.00000
845,   19.00000,   14.00000,    0.00000
846,   21.00000,    6.00000,    0.00000
847,   20.00000,    9.00000,    0.00000
848,   19.00000,   13.00000,    0.00000
849,   23.00000,    1.00000,    0.00000
850,   22.00000,    3.00000,    0.00000
851,   20.00000,    8.00000,    0.00000
852,   19.00000,   12.00000,    0.00000
853,   21.00000,    5.00000,    0.00000
854,   19.00000,   11.00000,    0.00000
855,   18.00000,   20.00000,    0.00000
856,   18.00000,   19.00000,    0.00000
857,   18.00000,   18.00000,    0.00000
858,   22.00000,    2.00000,    0.00000
859,   23.00000,    0.00000,    0.00000
860,   20.00000,    7.00000,    0.00000
861,   18.00000,   17.00000,    0.00000
862,   21.00000,    4.00000,    0.00000
863,   18.00000,   16.00000,    0.00000
864,   19.00000,   10.00000,    0.00000
865,   18.00000,   15.00000,    0.00000
866,   20.00000,    6.00000,    0.00000
867,   18.00000,   14.00000,    0.00000
868,   19.00000,    9.00000,    0.00000
869,   22.00000,    1.00000,    0.00000
870,   21.00000,    3.00000,    0.00000
871,   18.00000,   13.00000,    0.00000
872,   19.00000,    8.00000,    0.00000
873,   20.00000,    5.00000,    0.00000
874,   18.00000,   12.00000,    0.00000
875,   22.00000,    0.00000,    0.00000
876,   18.00000,   11.00000,    0.00000
877,   21.00000,    2.00000,    0.00000
878,   17.00000,   20.00000,    0.00000
879,   17.00000,   19.00000,    0.00000
880,   19.00000,    7.00000,    0.00000
881,   17.00000,   18.00000,    0.00000
882,   20.00000,    4.00000,    0.00000
883,   17.00000,   17.00000,    0.00000
884,   18.00000,   10.00000,    0.00000
885,   17.00000,   16.00000,    0.00000
886,   17.00000,   15.00000,    0.00000
887,   19.00000,    6.00000,    0.00000
888,   21.00000,    1.00000,    0.00000
889,   17.00000,   14.00000,    0.00000
890,   18.00000,    9.00000,    0.00000
891,   20.00000,    3.00000,    0.00000
892,   17.00000,   13.00000,    0.00000
893,   19.00000,    5.00000,    0.00000
894,   18.00000,    8.00000,    0.00000
895,   17.00000,   12.00000,    0.00000
896,   21.00000,    0.00000,    0.00000
897,   20.00000,    2.00000,    0.00000
898,   17.00000,   11.00000,    0.00000
899,   18.00000,    7.00000,    0.00000
900,   16.00000,   20.00000,    0.00000
901,   16.00000,   19.00000,    0.00000
902,   19.00000,    4.00000,    0.00000
903,   16.00000,   18.00000,    0.00000
904,   16.00000,   17.00000,    0.00000
905,   17.00000,   10.00000,    0.00000
906,   16.00000,   16.00000,    0.00000
907,   18.00000,    6.00000,    0.00000
908,   16.00000,   15.00000,    0.00000
909,   20.00000,    1.00000,    0.00000
910,   17.00000,    9.00000,    0.00000
911,   19.00000,    3.00000,    0.00000
912,   16.00000,   14.00000,    0.00000
913,   16.00000,   13.00000,    0.00000
914,   18.00000,    5.00000,    0.00000
915,   17.00000,    8.00000,    0.00000
916,   16.00000,   12.00000,    0.00000
917,   20.00000,    0.00000,    0.00000
918,   19.00000,    2.00000,    0.00000
919,   16.00000,   11.00000,    0.00000
920,   17.00000,    7.00000,    0.00000
921,   18.00000,    4.00000,    0.00000
922,   15.00000,   20.00000,    0.00000
923,   15.00000,   19.00000,    0.00000
924,   15.00000,   18.00000,    0.00000
925,   15.00000,   17.00000,    0.00000
926,   16.00000,   10.00000,    0.00000
927,   15.00000,   16.00000,    0.00000
928,   19.00000,    1.00000,    0.00000
929,   17.00000,    6.00000,    0.00000
930,   15.00000,   15.00000,    0.00000
931,   18.00000,    3.00000,    0.00000
932,   16.00000,    9.00000,    0.00000
933,   15.00000,   14.00000,    0.00000
934,   15.00000,   13.00000,    0.00000
935,   17.00000,    5.00000,    0.00000
936,   16.00000,    8.00000,    0.00000
937,   19.00000,    0.00000,    0.00000
938,   18.00000,    2.00000,    0.00000
939,   15.00000,   12.00000,    0.00000
940,   16.00000,    7.00000,    0.00000
941,   17.00000,    4.00000,    0.00000
942,   15.00000,   11.00000,    0.00000
943,   14.00000,   20.00000,    0.00000
944,   14.00000,   19.00000,    0.00000
945,   14.00000,   18.00000,    0.00000
946,   14.00000,   17.00000,    0.00000
947,   15.00000,   10.00000,    0.00000
948,   18.00000,    1.00000,    0.00000
949,   14.00000,   16.00000,    0.00000
950,   16.00000,    6.00000,    0.00000
951,   17.00000,    3.00000,    0.00000
952,   14.00000,   15.00000,    0.00000
953,   15.00000,    9.00000,    0.00000
954,   14.00000,   14.00000,    0.00000
955,   16.00000,    5.00000,    0.00000
956,   18.00000,    0.00000,    0.00000
957,   14.00000,   13.00000,    0.00000
958,   15.00000,    8.00000,    0.00000
959,   17.00000,    2.00000,    0.00000
960,   14.00000,   12.00000,    0.00000
961,   16.00000,    4.00000,    0.00000
962,   15.00000,    7.00000,    0.00000
963,   14.00000,   11.00000,    0.00000
964,   13.00000,   20.00000,    0.00000
965,   13.00000,   19.00000,    0.00000
966,   17.00000,    1.00000,    0.00000
967,   13.00000,   18.00000,    0.00000
968,   14.00000,   10.00000,    0.00000
969,   13.00000,   17.00000,    0.00000
970,   15.00000,    6.00000,    0.00000
971,   13.00000,   16.00000,    0.00000
972,   16.00000,    3.00000,    0.00000
973,   13.00000,   15.00000,    0.00000
974,   14.00000,    9.00000,    0.00000
975,   13.00000,   14.00000,    0.00000
976,   17.00000,    0.00000,    0.00000
977,   15.00000,    5.00000,    0.00000
978,   13.00000,   13.00000,    0.00000
979,   14.00000,    8.00000,    0.00000
980,   16.00000,    2.00000,    0.00000
981,   13.00000,   12.00000,    0.00000
982,   15.00000,    4.00000,    0.00000
983,   14.00000,    7.00000,    0.00000
984,   13.00000,   11.00000,    0.00000
985,   16.00000,    1.00000,    0.00000
986,   12.00000,   20.00000,    0.00000
987,   12.00000,   19.00000,    0.00000
988,   12.00000,   18.00000,    0.00000
989,   13.00000,   10.00000,    0.00000
990,   14.00000,    6.00000,    0.00000
991,   12.00000,   17.00000,    0.00000
992,   15.00000,    3.00000,    0.00000
993,   12.00000,   16.00000,    0.00000
994,   12.00000,   15.00000,    0.00000
995,   13.00000,    9.00000,    0.00000
996,   16.00000,    0.00000,    0.00000
997,   12.00000,   14.00000,    0.00000
998,   14.00000,    5.00000,    0.00000
999,   15.00000,    2.00000,    0.00000
1000,   12.00000,   13.00000,    0.00000
1001,   13.00000,    8.00000,    0.00000
1002,   12.00000,   12.00000,    0.00000
1003,   14.00000,    4.00000,    0.00000
1004,   13.00000,    7.00000,    0.00000
1005,   12.00000,   11.00000,    0.00000
1006,   15.00000,    1.00000,    0.00000
1007,   11.00000,   20.00000,    0.00000
1008,   11.00000,   19.00000,    0.00000
1009,   12.00000,   10.00000,    0.00000
1010,   11.00000,   18.00000,    0.00000
1011,   13.00000,    6.00000,    0.00000
1012,   14.00000,    3.00000,    0.00000
1013,   11.00000,   17.00000,    0.00000
1014,   11.00000,   16.00000,    0.00000
1015,   15.00000,    0.00000,    0.00000
1016,   12.00000,    9.00000,    0.00000
1017,   11.00000,   15.00000,    0.00000
1018,   13.00000,    5.00000,    0.00000
1019,   11.00000,   14.00000,    0.00000
1020,   14.00000,    2.00000,    0.00000
1021,   12.00000,    8.00000,    0.00000
1022,   11.00000,   13.00000,    0.00000
1023,   11.00000,   12.00000,    0.00000
1024,   13.00000,    4.00000,    0.00000
1025,   12.00000,    7.00000,    0.00000
1026,   14.00000,    1.00000,    0.00000
1027,   11.00000,   11.00000,    0.00000
1028,   13.00000,    3.00000,    0.00000
1029,   10.00000,   20.00000,    0.00000
1030,   12.00000,    6.00000,    0.00000
1031,   10.00000,   19.00000,    0.00000
1032,   11.00000,   10.00000,    0.00000
1033,   10.00000,   18.00000,    0.00000
1034,   10.00000,   17.00000,    0.00000
1035,   10.00000,   16.00000,    0.00000
1036,   14.00000,    0.00000,    0.00000
1037,   11.00000,    9.00000,    0.00000
1038,   10.00000,   15.00000,    0.00000
1039,   12.00000,    5.00000,    0.00000
1040,   13.00000,    2.00000,    0.00000
1041,   10.00000,   14.00000,    0.00000
1042,   11.00000,    8.00000,    0.00000
1043,   10.00000,   13.00000,    0.00000
1044,   12.00000,    4.00000,    0.00000
1045,   10.00000,   12.00000,    0.00000
1046,   13.00000,    1.00000,    0.00000
1047,   11.00000,    7.00000,    0.00000
1048,   10.00000,   11.00000,    0.00000
1049,   12.00000,    3.00000,    0.00000
1050,   11.00000,    6.00000,    0.00000
1051,   10.00000,   10.00000,    0.00000
1052,    9.00000,   20.00000,    0.00000
1053,    9.00000,   19.00000,    0.00000
1054,    9.00000,   18.00000,    0.00000
1055,   13.00000,    0.00000,    0.00000
1056,    9.00000,   17.00000,    0.00000
1057,    9.00000,   16.00000,    0.00000
1058,   10.00000,    9.00000,    0.00000
1059,    9.00000,   15.00000,    0.00000
1060,   11.00000,    5.00000,    0.00000
1061,   12.00000,    2.00000,    0.00000
1062,    9.00000,   14.00000,    0.00000
1063,   10.00000,    8.00000,    0.00000
1064,    9.00000,   13.00000,    0.00000
1065,   11.00000,    4.00000,    0.00000
1066,    9.00000,   12.00000,    0.00000
1067,   12.00000,    1.00000,    0.00000
1068,   10.00000,    7.00000,    0.00000
1069,    9.00000,   11.00000,    0.00000
1070,   11.00000,    3.00000,    0.00000
1071,   10.00000,    6.00000,    0.00000
1072,    9.00000,   10.00000,    0.00000
1073,   12.00000,    0.00000,    0.00000
1074,    8.00000,   20.00000,    0.00000
1075,    8.00000,   19.00000,    0.00000
1076,    8.00000,   18.00000,    0.00000
1077,    8.00000,   17.00000,    0.00000
1078,    8.00000,   16.00000,    0.00000
1079,    9.00000,    9.00000,    0.00000
1080,   11.00000,    2.00000,    0.00000
1081,   10.00000,    5.00000,    0.00000
1082,    8.00000,   15.00000,    0.00000
1083,    8.00000,   14.00000,    0.00000
1084,    9.00000,    8.00000,    0.00000
1085,    8.00000,   13.00000,    0.00000
1086,   10.00000,    4.00000,    0.00000
1087,   11.00000,    1.00000,    0.00000
1088,    8.00000,   12.00000,    0.00000
1089,    9.00000,    7.00000,    0.00000
1090,    8.00000,   11.00000,    0.00000
1091,   10.00000,    3.00000,    0.00000
1092,    9.00000,    6.00000,    0.00000
1093,   11.00000,    0.00000,    0.00000
1094,    8.00000,   10.00000,    0.00000
1095,    7.00000,   20.00000,    0.00000
1096,    7.00000,   19.00000,    0.00000
1097,    7.00000,   18.00000,    0.00000
1098,    7.00000,   17.00000,    0.00000
1099,   10.00000,    2.00000,    0.00000
1100,    7.00000,   16.00000,    0.00000
1101,    8.00000,    9.00000,    0.00000
1102,    9.00000,    5.00000,    0.00000
1103,    7.00000,   15.00000,    0.00000
1104,    7.00000,   14.00000,    0.00000
1105,    8.00000,    8.00000,    0.00000
1106,    9.00000,    4.00000,    0.00000
1107,    7.00000,   13.00000,    0.00000
1108,   10.00000,    1.00000,    0.00000
1109,    7.00000,   12.00000,    0.00000
1110,    8.00000,    7.00000,    0.00000
1111,    7.00000,   11.00000,    0.00000
1112,    9.00000,    3.00000,    0.00000
1113,   10.00000,    0.00000,    0.00000
1114,    8.00000,    6.00000,    0.00000
1115,    7.00000,   10.00000,    0.00000
1116,    6.00000,   20.00000,    0.00000
1117,    6.00000,   19.00000,    0.00000
1118,    6.00000,   18.00000,    0.00000
1119,    6.00000,   17.00000,    0.00000
1120,    9.00000,    2.00000,    0.00000
1121,    8.00000,    5.00000,    0.00000
1122,    7.00000,    9.00000,    0.00000
1123,    6.00000,   16.00000,    0.00000
1124,    6.00000,   15.00000,    0.00000
1125,    6.00000,   14.00000,    0.00000
1126,    7.00000,    8.00000,    0.00000
1127,    8.00000,    4.00000,    0.00000
1128,    9.00000,    1.00000,    0.00000
1129,    6.00000,   13.00000,    0.00000
1130,    7.00000,    7.00000,    0.00000
1131,    6.00000,   12.00000,    0.00000
1132,    8.00000,    3.00000,    0.00000
1133,    6.00000,   11.00000,    0.00000
1134,    9.00000,    0.00000,    0.00000
1135,    7.00000,    6.00000,    0.00000
1136,    6.00000,   10.00000,    0.00000
1137,    5.00000,   20.00000,    0.00000
1138,    5.00000,   19.00000,    0.00000
1139,    8.00000,    2.00000,    0.00000
1140,    5.00000,   18.00000,    0.00000
1141,    5.00000,   17.00000,    0.00000
1142,    7.00000,    5.00000,    0.00000
1143,    6.00000,    9.00000,    0.00000
1144,    5.00000,   16.00000,    0.00000
1145,    5.00000,   15.00000,    0.00000
1146,    6.00000,    8.00000,    0.00000
1147,    5.00000,   14.00000,    0.00000
1148,    8.00000,    1.00000,    0.00000
1149,    7.00000,    4.00000,    0.00000
1150,    5.00000,   13.00000,    0.00000
1151,    6.00000,    7.00000,    0.00000
1152,    5.00000,   12.00000,    0.00000
1153,    7.00000,    3.00000,    0.00000
1154,    8.00000,    0.00000,    0.00000
1155,    5.00000,   11.00000,    0.00000
1156,    6.00000,    6.00000,    0.00000
1157,    5.00000,   10.00000,    0.00000
1158,    7.00000,    2.00000,    0.00000
1159,    4.00000,   20.00000,    0.00000
1160,    4.00000,   19.00000,    0.00000
1161,    4.00000,   18.00000,    0.00000
1162,    6.00000,    5.00000,    0.00000
1163,    4.00000,   17.00000,    0.00000
1164,    5.00000,    9.00000,    0.00000
1165,    4.00000,   16.00000,    0.00000
1166,    4.00000,   15.00000,    0.00000
1167,    5.00000,    8.00000,    0.00000
1168,    7.00000,    1.00000,    0.00000
1169,    4.00000,   14.00000,    0.00000
1170,    6.00000,    4.00000,    0.00000
1171,    4.00000,   13.00000,    0.00000
1172,    5.00000,    7.00000,    0.00000
1173,    4.00000,   12.00000,    0.00000
1174,    6.00000,    3.00000,    0.00000
1175,    7.00000,    0.00000,    0.00000
1176,    4.00000,   11.00000,    0.00000
1177,    5.00000,    6.00000,    0.00000
1178,    4.00000,   10.00000,    0.00000
1179,    6.00000,    2.00000,    0.00000
1180,    3.00000,   20.00000,    0.00000
1181,    3.00000,   19.00000,    0.00000
1182,    5.00000,    5.00000,    0.00000
1183,    3.00000,   18.00000,    0.00000
1184,    4.00000,    9.00000,    0.00000
1185,    3.00000,   17.00000,    0.00000
1186,    3.00000,   16.00000,    0.00000
1187,    3.00000,   15.00000,    0.00000
1188,    6.00000,    1.00000,    0.00000
1189,    4.00000,    8.00000,    0.00000
1190,    5.00000,    4.00000,    0.00000
1191,    3.00000,   14.00000,    0.00000
1192,    3.00000,   13.00000,    0.00000
1193,    4.00000,    7.00000,    0.00000
1194,    3.00000,   12.00000,    0.00000
1195,    5.00000,    3.00000,    0.00000
1196,    6.00000,    0.00000,    0.00000
1197,    3.00000,   11.00000,    0.00000
1198,    4.00000,    6.00000,    0.00000
1199,    3.00000,   10.00000,    0.00000
1200,    5.00000,    2.00000,    0.00000
1201,    4.00000,    5.00000,    0.00000
1202,    2.00000,   20.00000,    0.00000
1203,    2.00000,   19.00000,    0.00000
1204,    2.00000,   18.00000,    0.00000
1205,    3.00000,    9.00000,    0.00000
1206,    2.00000,   17.00000,    0.00000
1207,    2.00000,   16.00000,    0.00000
1208,    5.00000,    1.00000,    0.00000
1209,    2.00000,   15.00000,    0.00000
1210,    4.00000,    4.00000,    0.00000
1211,    3.00000,    8.00000,    0.00000
1212,    2.00000,   14.00000,    0.00000
1213,    2.00000,   13.00000,    0.00000
1214,    3.00000,    7.00000,    0.00000
1215,    5.00000,    0.00000,    0.00000
1216,    4.00000,    3.00000,    0.00000
1217,    2.00000,   12.00000,    0.00000
1218,    2.00000,   11.00000,    0.00000
1219,    3.00000,    6.00000,    0.00000
1220,    4.00000,    2.00000,    0.00000
1221,    2.00000,   10.00000,    0.00000
1222,    3.00000,    5.00000,    0.00000
1223,    1.00000,   20.00000,    0.00000
1224,    1.00000,   19.00000,    0.00000
1225,    1.00000,   18.00000,    0.00000
1226,    2.00000,    9.00000,    0.00000
1227,    1.00000,   17.00000,    0.00000
1228,    1.00000,   16.00000,    0.00000
1229,    4.00000,    1.00000,    0.00000
1230,    3.00000,    4.00000,    0.00000
1231,    1.00000,   15.00000,    0.00000
1232,    2.00000,    8.00000,    0.00000
1233,    1.00000,   14.00000,    0.00000
1234,    1.00000,   13.00000,    0.00000
1235,    2.00000,    7.00000,    0.00000
1236,    4.00000,    0.00000,    0.00000
1237,    3.00000,    3.00000,    0.00000
1238,    1.00000,   12.00000,    0.00000
1239,    2.00000,    6.00000,    0.00000
1240,    1.00000,   11.00000,    0.00000
1241,    3.00000,    2.00000,    0.00000
1242,    1.00000,   10.00000,    0.00000
1243,    2.00000,    5.00000,    0.00000
1244,    0.00000,   20.00000,    0.00000
1245,    0.00000,   19.00000,    0.00000
1246,    1.00000,    9.00000,    0.00000
1247,    0.00000,   18.00000,    0.00000
1248,    0.00000,   17.00000,    0.00000
1249,    3.00000,    1.00000,    0.00000
1250,    0.00000,   16.00000,    0.00000
1251,    2.00000,    4.00000,    0.00000
1252,    0.00000,   15.00000,    0.00000
1253,    1.00000,    8.00000,    0.00000
1254,    0.00000,   14.00000,    0.00000
1255,    3.00000,    0.00000,    0.00000
1256,    0.00000,   13.00000,    0.00000
1257,    1.00000,    7.00000,    0.00000
1258,    2.00000,    3.00000,    0.00000
1259,    0.00000,   12.00000,    0.00000
1260,    1.00000,    6.00000,    0.00000
1261,    0.00000,   11.00000,    0.00000
1262,    2.00000,    2.00000,    0.00000
1263,    0.00000,   10.00000,    0.00000
1264,    1.00000,    5.00000,    0.00000
1265,    0.00000,    9.00000,    0.00000
1266,    2.00000,    1.00000,    0.00000
1267,    1.00000,    4.00000,    0.00000
1268,    0.00000,    8.00000,    0.00000
1269,    2.00000,    0.00000,    0.00000
1270,    0.00000,    7.00000,    0.00000
1271,    1.00000,    3.00000,    0.00000
1272,    0.00000,    6.00000,    0.00000
1273,    1.00000,    2.00000,    0.00000
1274,    0.00000,    5.00000,    0.00000
1275,    1.00000,    1.00000,    0.00000
1276,    0.00000,    4.00000,    0.00000
1277,    1.00000,    0.00000,    0.00000
1278,    0.00000,    3.00000,    0.00000
1279,    0.00000,    2.00000,    0.00000
1280,    0.00000,    1.00000,    0.00000
1281,    0.00000,    0.00000,    0.00000

*ELEMENT, TYPE=C3D4
1, 1277, 1275, 1280, 1281
*ELEMENT, TYPE=C3D4
2, 1269, 1266, 1275, 1277
*ELEMENT, TYPE=C3D4
3, 1255, 1249, 1266, 1269
*ELEMENT, TYPE=C3D4
4, 1236, 1229, 1249, 1255
*ELEMENT, TYPE=C3D4
5, 1215, 1208, 1229, 1236
*ELEMENT, TYPE=C3D4
6, 1196, 1188, 1208, 1215
*ELEMENT, TYPE=C3D4
7, 1175, 1168, 1188, 1196
*ELEMENT, TYPE=C3D4
8, 1154, 1148, 1168, 1175
*ELEMENT, TYPE=C3D4
9, 1134, 1128, 1148, 1154
*ELEMENT, TYPE=C3D4
10, 1113, 1108, 1128, 1134
*ELEMENT, TYPE=C3D4
11, 1093, 1087, 1108, 1113
*ELEMENT, TYPE=C3D4
12, 1073, 1067, 1087, 1093
*ELEMENT, TYPE=C3D4
13, 1055, 1046, 1067, 1073
*ELEMENT, TYPE=C3D4
14, 1036, 1026, 1046, 1055
*ELEMENT, TYPE=C3D4
15, 1015, 1006, 1026, 1036
*ELEMENT, TYPE=C3D4
16, 996, 985, 1006, 1015
*ELEMENT, TYPE=C3D4
17, 976, 966, 985, 996
*ELEMENT, TYPE=C3D4
18, 956, 948, 966, 976
*ELEMENT, TYPE=C3D4
19, 937, 928, 948, 956
*ELEMENT, TYPE=C3D4
20, 917, 909, 928, 937
*ELEMENT, TYPE=C3D4
21, 896, 888, 909, 917
*ELEMENT, TYPE=C3D4
22, 875, 869, 888, 896
*ELEMENT, TYPE=C3D4
23, 859, 849, 869, 875
*ELEMENT, TYPE=C3D4
24, 840, 828, 849, 859
*ELEMENT, TYPE=C3D4
25, 822, 809, 828, 840
*ELEMENT, TYPE=C3D4
26, 802, 789, 809, 822
*ELEMENT, TYPE=C3D4
27, 782, 772, 789, 802
*ELEMENT, TYPE=C3D4
28, 764, 754, 772, 782
*ELEMENT, TYPE=C3D4
29, 744, 734, 754, 764
*ELEMENT, TYPE=C3D4
30, 726, 716, 734, 744
*ELEMENT, TYPE=C3D4
31, 709, 695, 716, 726
*ELEMENT, TYPE=C3D4
32, 689, 675, 695, 709
*ELEMENT, TYPE=C3D4
33, 671, 658, 675, 689
*ELEMENT, TYPE=C3D4
34, 653, 639, 658, 671
*ELEMENT, TYPE=C3D4
35, 635, 623, 639, 653
*ELEMENT, TYPE=C3D4
36, 617, 604, 623, 635
*ELEMENT, TYPE=C3D4
37, 601, 584, 604, 617
*ELEMENT, TYPE=C3D4
38, 582, 566, 584, 601
*ELEMENT, TYPE=C3D4
39, 563, 552, 566, 582
*ELEMENT, TYPE=C3D4
40, 549, 532, 552, 563
*ELEMENT, TYPE=C3D4
41, 533, 513, 532, 549
*ELEMENT, TYPE=C3D4
42, 515, 499, 513, 533
*ELEMENT, TYPE=C3D4
43, 502, 482, 499, 515
*ELEMENT, TYPE=C3D4
44, 487, 467, 482, 502
*ELEMENT, TYPE=C3D4
45, 469, 454, 467, 487
*ELEMENT, TYPE=C3D4
46, 458, 437, 454, 469
*ELEMENT, TYPE=C3D4
47, 442, 421, 437, 458
*ELEMENT, TYPE=C3D4
48, 428, 406, 421, 442
*ELEMENT, TYPE=C3D4
49, 417, 392, 406, 428
*ELEMENT, TYPE=C3D4
50, 403, 380, 392, 417
*ELEMENT, TYPE=C3D4
51, 390, 365, 380, 403
*ELEMENT, TYPE=C3D4
52, 382, 356, 365, 390
*ELEMENT, TYPE=C3D4
53, 371, 345, 356, 382
*ELEMENT, TYPE=C3D4
54, 362, 330, 345, 371
*ELEMENT, TYPE=C3D4
55, 357, 321, 330, 362
*ELEMENT, TYPE=C3D4
56, 348, 319, 321, 357
*ELEMENT, TYPE=C3D4
57, 342, 312, 319, 348
*ELEMENT, TYPE=C3D4
58, 338, 307, 312, 342
*ELEMENT, TYPE=C3D4
59, 336, 303, 307, 338
*ELEMENT, TYPE=C3D4
60, 334, 301, 303, 336
*ELEMENT, TYPE=C3D4
61, 1275, 1273, 1279, 1280
*ELEMENT, TYPE=C3D4
62, 1266, 1262, 1273, 1275
*ELEMENT, TYPE=C3D4
63, 1249, 1241, 1262, 1266
*ELEMENT, TYPE=C3D4
64, 1229, 1220, 1241, 1249
*ELEMENT, TYPE=C3D4
65, 1208, 1200, 1220, 1229
*ELEMENT, TYPE=C3D4
66, 1188, 1179, 1200, 1208
*ELEMENT, TYPE=C3D4
67, 1168, 1158, 1179, 1188
*ELEMENT, TYPE=C3D4
68, 1148, 1139, 1158, 1168
*ELEMENT, TYPE=C3D4
69, 1128, 1120, 1139, 1148
*ELEMENT, TYPE=C3D4
70, 1108, 1099, 1120, 1128
*ELEMENT, TYPE=C3D4
71, 1087, 1080, 1099, 1108
*ELEMENT, TYPE=C3D4
72, 1067, 1061, 1080, 1087
*ELEMENT, TYPE=C3D4
73, 1046, 1040, 1061, 1067
*ELEMENT, TYPE=C3D4
74, 1026, 1020, 1040, 1046
*ELEMENT, TYPE=C3D4
75, 1006, 999, 1020, 1026
*ELEMENT, TYPE=C3D4
76, 985, 980, 999, 1006
*ELEMENT, TYPE=C3D4
77, 966, 959, 980, 985
*ELEMENT, TYPE=C3D4
78, 948, 938, 959, 966
*ELEMENT, TYPE=C3D4
79, 928, 918, 938, 948
*ELEMENT, TYPE=C3D4
80, 909, 897, 918, 928
*ELEMENT, TYPE=C3D4
81, 888, 877, 897, 909
*ELEMENT, TYPE=C3D4
82, 869, 858, 877, 888
*ELEMENT, TYPE=C3D4
83, 849, 839, 858, 869
*ELEMENT, TYPE=C3D4
84, 828, 819, 839, 849
*ELEMENT, TYPE=C3D4
85, 809, 800, 819, 828
*ELEMENT, TYPE=C3D4
86, 789, 780, 800, 809
*ELEMENT, TYPE=C3D4
87, 772, 760, 780, 789
*ELEMENT, TYPE=C3D4
88, 754, 741, 760, 772
*ELEMENT, TYPE=C3D4
89, 734, 720, 741, 754
*ELEMENT, TYPE=C3D4
90, 716, 701, 720, 734
*ELEMENT, TYPE=C3D4
91, 695, 684, 701, 716
*ELEMENT, TYPE=C3D4
92, 675, 666, 684, 695
*ELEMENT, TYPE=C3D4
93, 658, 646, 666, 675
*ELEMENT, TYPE=C3D4
94, 639, 626, 646, 658
*ELEMENT, TYPE=C3D4
95, 623, 606, 626, 639
*ELEMENT, TYPE=C3D4
96, 604, 587, 606, 623
*ELEMENT, TYPE=C3D4
97, 584, 573, 587, 604
*ELEMENT, TYPE=C3D4
98, 566, 553, 573, 584
*ELEMENT, TYPE=C3D4
99, 552, 534, 553, 566
*ELEMENT, TYPE=C3D4
100, 532, 514, 534, 552
*ELEMENT, TYPE=C3D4
101, 513, 498, 514, 532
*ELEMENT, TYPE=C3D4
102, 499, 480, 498, 513
*ELEMENT, TYPE=C3D4
103, 482, 465, 480, 499
*ELEMENT, TYPE=C3D4
104, 467, 448, 465, 482
*ELEMENT, TYPE=C3D4
105, 454, 434, 448, 467
*ELEMENT, TYPE=C3D4
106, 437, 414, 434, 454
*ELEMENT, TYPE=C3D4
107, 421, 400, 414, 437
*ELEMENT, TYPE=C3D4
108, 406, 385, 400, 421
*ELEMENT, TYPE=C3D4
109, 392, 368, 385, 406
*ELEMENT, TYPE=C3D4
110, 380, 352, 368, 392
*ELEMENT, TYPE=C3D4
111, 365, 340, 352, 380
*ELEMENT, TYPE=C3D4
112, 356, 323, 340, 365
*ELEMENT, TYPE=C3D4
113, 345, 315, 323, 356
*ELEMENT, TYPE=C3D4
114, 330, 299, 315, 345
*ELEMENT, TYPE=C3D4
115, 321, 293, 299, 330
*ELEMENT, TYPE=C3D4
116, 319, 289, 293, 321
*ELEMENT, TYPE=C3D4
117, 312, 280, 289, 319
*ELEMENT, TYPE=C3D4
118, 307, 278, 280, 312
*ELEMENT, TYPE=C3D4
119, 303, 274, 278, 307
*ELEMENT, TYPE=C3D4
120, 301, 270, 274, 303
*ELEMENT, TYPE=C3D4
121, 1273, 1271, 1278, 1279
*ELEMENT, TYPE=C3D4
122, 1262, 1258, 1271, 1273
*ELEMENT, TYPE=C3D4
123, 1241, 1237, 1258, 1262
*ELEMENT, TYPE=C3D4
124, 1220, 1216, 1237, 1241
*ELEMENT, TYPE=C3D4
125, 1200, 1195, 1216, 1220
*ELEMENT, TYPE=C3D4
126, 1179, 1174, 1195, 1200
*ELEMENT, TYPE=C3D4
127, 1158, 1153, 1174, 1179
*ELEMENT, TYPE=C3D4
128, 1139, 1132, 1153, 1158
*ELEMENT, TYPE=C3D4
129, 1120, 1112, 1132, 1139
*ELEMENT, TYPE=C3D4
130, 1099, 1091, 1112, 1120
*ELEMENT, TYPE=C3D4
131, 1080, 1070, 1091, 1099
*ELEMENT, TYPE=C3D4
132, 1061, 1049, 1070, 1080
*ELEMENT, TYPE=C3D4
133, 1040, 1028, 1049, 1061
*ELEMENT, TYPE=C3D4
134, 1020, 1012, 1028, 1040
*ELEMENT, TYPE=C3D4
135, 999, 992, 1012, 1020
*ELEMENT, TYPE=C3D4
136, 980, 972, 992, 999
*ELEMENT, TYPE=C3D4
137, 959, 951, 972, 980
*ELEMENT, TYPE=C3D4
138, 938, 931, 951, 959
*ELEMENT, TYPE=C3D4
139, 918, 911, 931, 938
*ELEMENT, TYPE=C3D4
140, 897, 891, 911, 918
*ELEMENT, TYPE=C3D4
141, 877, 870, 891, 897
*ELEMENT, TYPE=C3D4
142, 858, 850, 870, 877
*ELEMENT, TYPE=C3D4
143, 839, 829, 850, 858
*ELEMENT, TYPE=C3D4
144, 819, 808, 829, 839
*ELEMENT, TYPE=C3D4
145, 800, 788, 808, 819
*ELEMENT, TYPE=C3D4
146, 780, 769, 788, 800
*ELEMENT, TYPE=C3D4
147, 760, 751, 769, 780
*ELEMENT, TYPE=C3D4
148, 741, 731, 751, 760
*ELEMENT, TYPE=C3D4
149, 720, 712, 731, 741
*ELEMENT, TYPE=C3D4
150, 701, 692, 712, 720
*ELEMENT, TYPE=C3D4
151, 684, 672, 692, 701
*ELEMENT, TYPE=C3D4
152, 666, 651, 672, 684
*ELEMENT, TYPE=C3D4
153, 646, 631, 651, 666
*ELEMENT, TYPE=C3D4
154, 626, 614, 631, 646
*ELEMENT, TYPE=C3D4
155, 606, 595, 614, 626
*ELEMENT, TYPE=C3D4
156, 587, 575, 595, 606
*ELEMENT, TYPE=C3D4
157, 573, 556, 575, 587
*ELEMENT, TYPE=C3D4
158, 553, 538, 556, 573
*ELEMENT, TYPE=C3D4
159, 534, 520, 538, 553
*ELEMENT, TYPE=C3D4
160, 514, 501, 520, 534
*ELEMENT, TYPE=C3D4
161, 498, 481, 501, 514
*ELEMENT, TYPE=C3D4
162, 480, 464, 481, 498
*ELEMENT, TYPE=C3D4
163, 465, 445, 464, 480
*ELEMENT, TYPE=C3D4
164, 448, 430, 445, 465
*ELEMENT, TYPE=C3D4
165, 434, 411, 430, 448
*ELEMENT, TYPE=C3D4
166, 414, 395, 411, 434
*ELEMENT, TYPE=C3D4
167, 400, 378, 395, 414
*ELEMENT, TYPE=C3D4
168, 385, 360, 378, 400
*ELEMENT, TYPE=C3D4
169, 368, 344, 360, 385
*ELEMENT, TYPE=C3D4
170, 352, 325, 344, 368
*ELEMENT, TYPE=C3D4
171, 340, 311, 325, 352
*ELEMENT, TYPE=C3D4
172, 323, 295, 311, 340
*ELEMENT, TYPE=C3D4
173, 315, 284, 295, 323
*ELEMENT, TYPE=C3D4
174, 299, 273, 284, 315
*ELEMENT, TYPE=C3D4
175, 293, 264, 273, 299
*ELEMENT, TYPE=C3D4
176, 289, 257, 264, 293
*ELEMENT, TYPE=C3D4
177, 280, 254, 257, 289
*ELEMENT, TYPE=C3D4
178, 278, 250, 254, 280
*ELEMENT, TYPE=C3D4
179, 274, 246, 250, 278
*ELEMENT, TYPE=C3D4
180, 270, 241, 246, 274
*ELEMENT, TYPE=C3D4
181, 1271, 1267, 1276, 1278
*ELEMENT, TYPE=C3D4
182, 1258, 1251, 1267, 1271
*ELEMENT, TYPE=C3D4
183, 1237, 1230, 1251, 1258
*ELEMENT, TYPE=C3D4
184, 1216, 1210, 1230, 1237
*ELEMENT, TYPE=C3D4
185, 1195, 1190, 1210, 1216
*ELEMENT, TYPE=C3D4
186, 1174, 1170, 1190, 1195
*ELEMENT, TYPE=C3D4
187, 1153, 1149, 1170, 1174
*ELEMENT, TYPE=C3D4
188, 1132, 1127, 1149, 1153
*ELEMENT, TYPE=C3D4
189, 1112, 1106, 1127, 1132
*ELEMENT, TYPE=C3D4
190, 1091, 1086, 1106, 1112
*ELEMENT, TYPE=C3D4
191, 1070, 1065, 1086, 1091
*ELEMENT, TYPE=C3D4
192, 1049, 1044, 1065, 1070
*ELEMENT, TYPE=C3D4
193, 1028, 1024, 1044, 1049
*ELEMENT, TYPE=C3D4
194, 1012, 1003, 1024, 1028
*ELEMENT, TYPE=C3D4
195, 992, 982, 1003, 1012
*ELEMENT, TYPE=C3D4
196, 972, 961, 982, 992
*ELEMENT, TYPE=C3D4
197, 951, 941, 961, 972
*ELEMENT, TYPE=C3D4
198, 931, 921, 941, 951
*ELEMENT, TYPE=C3D4
199, 911, 902, 921, 931
*ELEMENT, TYPE=C3D4
200, 891, 882, 902, 911
*ELEMENT, TYPE=C3D4
201, 870, 862, 882, 891
*ELEMENT, TYPE=C3D4
202, 850, 843, 862, 870
*ELEMENT, TYPE=C3D4
203, 829, 823, 843, 850
*ELEMENT, TYPE=C3D4
204, 808, 801, 823, 829
*ELEMENT, TYPE=C3D4
205, 788, 781, 801, 808
*ELEMENT, TYPE=C3D4
206, 769, 759, 781, 788
*ELEMENT, TYPE=C3D4
207, 751, 739, 759, 769
*ELEMENT, TYPE=C3D4
208, 731, 719, 739, 751
*ELEMENT, TYPE=C3D4
209, 712, 698, 719, 731
*ELEMENT, TYPE=C3D4
210, 692, 679, 698, 712
*ELEMENT, TYPE=C3D4
211, 672, 661, 679, 692
*ELEMENT, TYPE=C3D4
212, 651, 641, 661, 672
*ELEMENT, TYPE=C3D4
213, 631, 621, 641, 651
*ELEMENT, TYPE=C3D4
214, 614, 602, 621, 631
*ELEMENT, TYPE=C3D4
215, 595, 581, 602, 614
*ELEMENT, TYPE=C3D4
216, 575, 561, 581, 595
*ELEMENT, TYPE=C3D4
217, 556, 542, 561, 575
*ELEMENT, TYPE=C3D4
218, 538, 524, 542, 556
*ELEMENT, TYPE=C3D4
219, 520, 505, 524, 538
*ELEMENT, TYPE=C3D4
220, 501, 486, 505, 520
*ELEMENT, TYPE=C3D4
221, 481, 466, 486, 501
*ELEMENT, TYPE=C3D4
222, 464, 447, 466, 481
*ELEMENT, TYPE=C3D4
223, 445, 429, 447, 464
*ELEMENT, TYPE=C3D4
224, 430, 410, 429, 445
*ELEMENT, TYPE=C3D4
225, 411, 388, 410, 430
*ELEMENT, TYPE=C3D4
226, 395, 375, 388, 411
*ELEMENT, TYPE=C3D4
227, 378, 354, 375, 395
*ELEMENT, TYPE=C3D4
228, 360, 332, 354, 378
*ELEMENT, TYPE=C3D4
229, 344, 317, 332, 360
*ELEMENT, TYPE=C3D4
230, 325, 297, 317, 344
*ELEMENT, TYPE=C3D4
231, 311, 282, 297, 325
*ELEMENT, TYPE=C3D4
232, 295, 268, 282, 311
*ELEMENT, TYPE=C3D4
233, 284, 256, 268, 295
*ELEMENT, TYPE=C3D4
234, 273, 248, 256, 284
*ELEMENT, TYPE=C3D4
235, 264, 237, 248, 273
*ELEMENT, TYPE=C3D4
236, 257, 231, 237, 264
*ELEMENT, TYPE=C3D4
237, 254, 226, 231, 257
*ELEMENT, TYPE=C3D4
238, 250, 220, 226, 254
*ELEMENT, TYPE=C3D4
239, 246, 217, 220, 250
*ELEMENT, TYPE=C3D4
240, 241, 215, 217, 246
*ELEMENT, TYPE=C3D4
241, 1267, 1264, 1274, 1276
*ELEMENT, TYPE=C3D4
242, 1251, 1243, 1264, 1267
*ELEMENT, TYPE=C3D4
243, 1230, 1222, 1243, 1251
*ELEMENT, TYPE=C3D4
244, 1210, 1201, 1222, 1230
*ELEMENT, TYPE=C3D4
245, 1190, 1182, 1201, 1210
*ELEMENT, TYPE=C3D4
246, 1170, 1162, 1182, 1190
*ELEMENT, TYPE=C3D4
247, 1149, 1142, 1162, 1170
*ELEMENT, TYPE=C3D4
248, 1127, 1121, 1142, 1149
*ELEMENT, TYPE=C3D4
249, 1106, 1102, 1121, 1127
*ELEMENT, TYPE=C3D4
250, 1086, 1081, 1102, 1106
*ELEMENT, TYPE=C3D4
251, 1065, 1060, 1081, 1086
*ELEMENT, TYPE=C3D4
252, 1044, 1039, 1060, 1065
*ELEMENT, TYPE=C3D4
253, 1024, 1018, 1039, 1044
*ELEMENT, TYPE=C3D4
254, 1003, 998, 1018, 1024
*ELEMENT, TYPE=C3D4
255, 982, 977, 998, 1003
*ELEMENT, TYPE=C3D4
256, 961, 955, 977, 982
*ELEMENT, TYPE=C3D4
257, 941, 935, 955, 961
*ELEMENT, TYPE=C3D4
258, 921, 914, 935, 941
*ELEMENT, TYPE=C3D4
259, 902, 893, 914, 921
*ELEMENT, TYPE=C3D4
260, 882, 873, 893, 902
*ELEMENT, TYPE=C3D4
261, 862, 853, 873, 882
*ELEMENT, TYPE=C3D4
262, 843, 832, 853, 862
*ELEMENT, TYPE=C3D4
263, 823, 811, 832, 843
*ELEMENT, TYPE=C3D4
264, 801, 791, 811, 823
*ELEMENT, TYPE=C3D4
265, 781, 773, 791, 801
*ELEMENT, TYPE=C3D4
266, 759, 752, 773, 781
*ELEMENT, TYPE=C3D4
267, 739, 732, 752, 759
*ELEMENT, TYPE=C3D4
268, 719, 710, 732, 739
*ELEMENT, TYPE=C3D4
269, 698, 690, 710, 719
*ELEMENT, TYPE=C3D4
270, 679, 670, 690, 698
*ELEMENT, TYPE=C3D4
271, 661, 649, 670, 679
*ELEMENT, TYPE=C3D4
272, 641, 628, 649, 661
*ELEMENT, TYPE=C3D4
273, 621, 609, 628, 641
*ELEMENT, TYPE=C3D4
274, 602, 589, 609, 621
*ELEMENT, TYPE=C3D4
275, 581, 570, 589, 602
*ELEMENT, TYPE=C3D4
276, 561, 551, 570, 581
*ELEMENT, TYPE=C3D4
277, 542, 529, 551, 561
*ELEMENT, TYPE=C3D4
278, 524, 510, 529, 542
*ELEMENT, TYPE=C3D4
279, 505, 490, 510, 524
*ELEMENT, TYPE=C3D4
280, 486, 468, 490, 505
*ELEMENT, TYPE=C3D4
281, 466, 453, 468, 486
*ELEMENT, TYPE=C3D4
282, 447, 433, 453, 466
*ELEMENT, TYPE=C3D4
283, 429, 412, 433, 447
*ELEMENT, TYPE=C3D4
284, 410, 389, 412, 429
*ELEMENT, TYPE=C3D4
285, 388, 373, 389, 410
*ELEMENT, TYPE=C3D4
286, 375, 350, 373, 388
*ELEMENT, TYPE=C3D4
287, 354, 328, 350, 375
*ELEMENT, TYPE=C3D4
288, 332, 309, 328, 354
*ELEMENT, TYPE=C3D4
289, 317, 291, 309, 332
*ELEMENT, TYPE=C3D4
290, 297, 272, 291, 317
*ELEMENT, TYPE=C3D4
291, 282, 260, 272, 297
*ELEMENT, TYPE=C3D4
292, 268, 240, 260, 282
*ELEMENT, TYPE=C3D4
293, 256, 233, 240, 268
*ELEMENT, TYPE=C3D4
294, 248, 223, 233, 256
*ELEMENT, TYPE=C3D4
295, 237, 212, 223, 248
*ELEMENT, TYPE=C3D4
296, 231, 204, 212, 237
*ELEMENT, TYPE=C3D4
297, 226, 202, 204, 231
*ELEMENT, TYPE=C3D4
298, 220, 196, 202, 226
*ELEMENT, TYPE=C3D4
299, 217, 194, 196, 220
*ELEMENT, TYPE=C3D4
300, 215, 191, 194, 217
*ELEMENT, TYPE=C3D4
301, 1264, 1260, 1272, 1274
*ELEMENT, TYPE=C3D4
302, 1243, 1239, 1260, 1264
*ELEMENT, TYPE=C3D4
303, 1222, 1219, 1239, 1243
*ELEMENT, TYPE=C3D4
304, 1201, 1198, 1219, 1222
*ELEMENT, TYPE=C3D4
305, 1182, 1177, 1198, 1201
*ELEMENT, TYPE=C3D4
306, 1162, 1156, 1177, 1182
*ELEMENT, TYPE=C3D4
307, 1142, 1135, 1156, 1162
*ELEMENT, TYPE=C3D4
308, 1121, 1114, 1135, 1142
*ELEMENT, TYPE=C3D4
309, 1102, 1092, 1114, 1121
*ELEMENT, TYPE=C3D4
310, 1081, 1071, 1092, 1102
*ELEMENT, TYPE=C3D4
311, 1060, 1050, 1071, 1081
*ELEMENT, TYPE=C3D4
312, 1039, 1030, 1050, 1060
*ELEMENT, TYPE=C3D4
313, 1018, 1011, 1030, 1039
*ELEMENT, TYPE=C3D4
314, 998, 990, 1011, 1018
*ELEMENT, TYPE=C3D4
315, 977, 970, 990, 998
*ELEMENT, TYPE=C3D4
316, 955, 950, 970, 977
*ELEMENT, TYPE=C3D4
317, 935, 929, 950, 955
*ELEMENT, TYPE=C3D4
318, 914, 907, 929, 935
*ELEMENT, TYPE=C3D4
319, 893, 887, 907, 914
*ELEMENT, TYPE=C3D4
320, 873, 866, 887, 893
*ELEMENT, TYPE=C3D4
321, 853, 846, 866, 873
*ELEMENT, TYPE=C3D4
322, 832, 825, 846, 853
*ELEMENT, TYPE=C3D4
323, 811, 805, 825, 832
*ELEMENT, TYPE=C3D4
324, 791, 784, 805, 811
*ELEMENT, TYPE=C3D4
325, 773, 763, 784, 791
*ELEMENT, TYPE=C3D4
326, 752, 742, 763, 773
*ELEMENT, TYPE=C3D4
327, 732, 721, 742, 752
*ELEMENT, TYPE=C3D4
328, 710, 700, 721, 732
*ELEMENT, TYPE=C3D4
329, 690, 681, 700, 710
*ELEMENT, TYPE=C3D4
330, 670, 660, 681, 690
*ELEMENT, TYPE=C3D4
331, 649, 640, 660, 670
*ELEMENT, TYPE=C3D4
332, 628, 619, 640, 649
*ELEMENT, TYPE=C3D4
333, 609, 598, 619, 628
*ELEMENT, TYPE=C3D4
334, 589, 578, 598, 609
*ELEMENT, TYPE=C3D4
335, 570, 559, 578, 589
*ELEMENT, TYPE=C3D4
336, 551, 537, 559, 570
*ELEMENT, TYPE=C3D4
337, 529, 516, 537, 551
*ELEMENT, TYPE=C3D4
338, 510, 496, 516, 529
*ELEMENT, TYPE=C3D4
339, 490, 477, 496, 510
*ELEMENT, TYPE=C3D4
340, 468, 457, 477, 490
*ELEMENT, TYPE=C3D4
341, 453, 436, 457, 468
*ELEMENT, TYPE=C3D4
342, 433, 413, 436, 453
*ELEMENT, TYPE=C3D4
343, 412, 396, 413, 433
*ELEMENT, TYPE=C3D4
344, 389, 376, 396, 412
*ELEMENT, TYPE=C3D4
345, 373, 351, 376, 389
*ELEMENT, TYPE=C3D4
346, 350, 327, 351, 373
*ELEMENT, TYPE=C3D4
347, 328, 305, 327, 350
*ELEMENT, TYPE=C3D4
348, 309, 287, 305, 328
*ELEMENT, TYPE=C3D4
349, 291, 266, 287, 309
*ELEMENT, TYPE=C3D4
350, 272, 252, 266, 291
*ELEMENT, TYPE=C3D4
351, 260, 235, 252, 272
*ELEMENT, TYPE=C3D4
352, 240, 219, 235, 260
*ELEMENT, TYPE=C3D4
353, 233, 209, 219, 240
*ELEMENT, TYPE=C3D4
354, 223, 198, 209, 233
*ELEMENT, TYPE=C3D4
355, 212, 186, 198, 223
*ELEMENT, TYPE=C3D4
356, 204, 182, 186, 212
*ELEMENT, TYPE=C3D4
357, 202, 177, 182, 204
*ELEMENT, TYPE=C3D4
358, 196, 171, 177, 202
*ELEMENT, TYPE=C3D4
359, 194, 169, 171, 196
*ELEMENT, TYPE=C3D4
360, 191, 167, 169, 194
*ELEMENT, TYPE=C3D4
361, 1260, 1257, 1270, 1272
*ELEMENT, TYPE=C3D4
362, 1239, 1235, 1257, 1260
*ELEMENT, TYPE=C3D4
363, 1219, 1214, 1235, 1239
*ELEMENT, TYPE=C3D4
364, 1198, 1193, 1214, 1219
*ELEMENT, TYPE=C3D4
365, 1177, 1172, 1193, 1198
*ELEMENT, TYPE=C3D4
366, 1156, 1151, 1172, 1177
*ELEMENT, TYPE=C3D4
367, 1135, 1130, 1151, 1156
*ELEMENT, TYPE=C3D4
368, 1114, 1110, 1130, 1135
*ELEMENT, TYPE=C3D4
369, 1092, 1089, 1110, 1114
*ELEMENT, TYPE=C3D4
370, 1071, 1068, 1089, 1092
*ELEMENT, TYPE=C3D4
371, 1050, 1047, 1068, 1071
*ELEMENT, TYPE=C3D4
372, 1030, 1025, 1047, 1050
*ELEMENT, TYPE=C3D4
373, 1011, 1004, 1025, 1030
*ELEMENT, TYPE=C3D4
374, 990, 983, 1004, 1011
*ELEMENT, TYPE=C3D4
375, 970, 962, 983, 990
*ELEMENT, TYPE=C3D4
376, 950, 940, 962, 970
*ELEMENT, TYPE=C3D4
377, 929, 920, 940, 950
*ELEMENT, TYPE=C3D4
378, 907, 899, 920, 929
*ELEMENT, TYPE=C3D4
379, 887, 880, 899, 907
*ELEMENT, TYPE=C3D4
380, 866, 860, 880, 887
*ELEMENT, TYPE=C3D4
381, 846, 838, 860, 866
*ELEMENT, TYPE=C3D4
382, 825, 817, 838, 846
*ELEMENT, TYPE=C3D4
383, 805, 797, 817, 825
*ELEMENT, TYPE=C3D4
384, 784, 776, 797, 805
*ELEMENT, TYPE=C3D4
385, 763, 756, 776, 784
*ELEMENT, TYPE=C3D4
386, 742, 736, 756, 763
*ELEMENT, TYPE=C3D4
387, 721, 714, 736, 742
*ELEMENT, TYPE=C3D4
388, 700, 694, 714, 721
*ELEMENT, TYPE=C3D4
389, 681, 673, 694, 700
*ELEMENT, TYPE=C3D4
390, 660, 650, 673, 681
*ELEMENT, TYPE=C3D4
391, 640, 630, 650, 660
*ELEMENT, TYPE=C3D4
392, 619, 608, 630, 640
*ELEMENT, TYPE=C3D4
393, 598, 586, 608, 619
*ELEMENT, TYPE=C3D4
394, 578, 567, 586, 598
*ELEMENT, TYPE=C3D4
395, 559, 547, 567, 578
*ELEMENT, TYPE=C3D4
396, 537, 526, 547, 559
*ELEMENT, TYPE=C3D4
397, 516, 507, 526, 537
*ELEMENT, TYPE=C3D4
398, 496, 485, 507, 516
*ELEMENT, TYPE=C3D4
399, 477, 461, 485, 496
*ELEMENT, TYPE=C3D4
400, 457, 441, 461, 477
*ELEMENT, TYPE=C3D4
401, 436, 420, 441, 457
*ELEMENT, TYPE=C3D4
402, 413, 401, 420, 436
*ELEMENT, TYPE=C3D4
403, 396, 379, 401, 413
*ELEMENT, TYPE=C3D4
404, 376, 355, 379, 396
*ELEMENT, TYPE=C3D4
405, 351, 329, 355, 376
*ELEMENT, TYPE=C3D4
406, 327, 306, 329, 351
*ELEMENT, TYPE=C3D4
407, 305, 285, 306, 327
*ELEMENT, TYPE=C3D4
408, 287, 262, 285, 305
*ELEMENT, TYPE=C3D4
409, 266, 244, 262, 287
*ELEMENT, TYPE=C3D4
410, 252, 229, 244, 266
*ELEMENT, TYPE=C3D4
411, 235, 211, 229, 252
*ELEMENT, TYPE=C3D4
412, 219, 200, 211, 235
*ELEMENT, TYPE=C3D4
413, 209, 184, 200, 219
*ELEMENT, TYPE=C3D4
414, 198, 176, 184, 209
*ELEMENT, TYPE=C3D4
415, 186, 165, 176, 198
*ELEMENT, TYPE=C3D4
416, 182, 159, 165, 186
*ELEMENT, TYPE=C3D4
417, 177, 153, 159, 182
*ELEMENT, TYPE=C3D4
418, 171, 151, 153, 177
*ELEMENT, TYPE=C3D4
419, 169, 148, 151, 171
*ELEMENT, TYPE=C3D4
420, 167, 144, 148, 169
*ELEMENT, TYPE=C3D4
421, 1257, 1253, 1268, 1270
*ELEMENT, TYPE=C3D4
422, 1235, 1232, 1253, 1257
*ELEMENT, TYPE=C3D4
423, 1214, 1211, 1232, 1235
*ELEMENT, TYPE=C3D4
424, 1193, 1189, 1211, 1214
*ELEMENT, TYPE=C3D4
425, 1172, 1167, 1189, 1193
*ELEMENT, TYPE=C3D4
426, 1151, 1146, 1167, 1172
*ELEMENT, TYPE=C3D4
427, 1130, 1126, 1146, 1151
*ELEMENT, TYPE=C3D4
428, 1110, 1105, 1126, 1130
*ELEMENT, TYPE=C3D4
429, 1089, 1084, 1105, 1110
*ELEMENT, TYPE=C3D4
430, 1068, 1063, 1084, 1089
*ELEMENT, TYPE=C3D4
431, 1047, 1042, 1063, 1068
*ELEMENT, TYPE=C3D4
432, 1025, 1021, 1042, 1047
*ELEMENT, TYPE=C3D4
433, 1004, 1001, 1021, 1025
*ELEMENT, TYPE=C3D4
434, 983, 979, 1001, 1004
*ELEMENT, TYPE=C3D4
435, 962, 958, 979, 983
*ELEMENT, TYPE=C3D4
436, 940, 936, 958, 962
*ELEMENT, TYPE=C3D4
437, 920, 915, 936, 940
*ELEMENT, TYPE=C3D4
438, 899, 894, 915, 920
*ELEMENT, TYPE=C3D4
439, 880, 872, 894, 899
*ELEMENT, TYPE=C3D4
440, 860, 851, 872, 880
*ELEMENT, TYPE=C3D4
441, 838, 831, 851, 860
*ELEMENT, TYPE=C3D4
442, 817, 810, 831, 838
*ELEMENT, TYPE=C3D4
443, 797, 787, 810, 817
*ELEMENT, TYPE=C3D4
444, 776, 766, 787, 797
*ELEMENT, TYPE=C3D4
445, 756, 746, 766, 776
*ELEMENT, TYPE=C3D4
446, 736, 727, 746, 756
*ELEMENT, TYPE=C3D4
447, 714, 705, 727, 736
*ELEMENT, TYPE=C3D4
448, 694, 685, 705, 714
*ELEMENT, TYPE=C3D4
449, 673, 665, 685, 694
*ELEMENT, TYPE=C3D4
450, 650, 644, 665, 673
*ELEMENT, TYPE=C3D4
451, 630, 622, 644, 650
*ELEMENT, TYPE=C3D4
452, 608, 600, 622, 630
*ELEMENT, TYPE=C3D4
453, 586, 579, 600, 608
*ELEMENT, TYPE=C3D4
454, 567, 557, 579, 586
*ELEMENT, TYPE=C3D4
455, 547, 536, 557, 567
*ELEMENT, TYPE=C3D4
456, 526, 512, 536, 547
*ELEMENT, TYPE=C3D4
457, 507, 491, 512, 526
*ELEMENT, TYPE=C3D4
458, 485, 473, 491, 507
*ELEMENT, TYPE=C3D4
459, 461, 451, 473, 485
*ELEMENT, TYPE=C3D4
460, 441, 427, 451, 461
*ELEMENT, TYPE=C3D4
461, 420, 407, 427, 441
*ELEMENT, TYPE=C3D4
462, 401, 386, 407, 420
*ELEMENT, TYPE=C3D4
463, 379, 361, 386, 401
*ELEMENT, TYPE=C3D4
464, 355, 333, 361, 379
*ELEMENT, TYPE=C3D4
465, 329, 310, 333, 355
*ELEMENT, TYPE=C3D4
466, 306, 288, 310, 329
*ELEMENT, TYPE=C3D4
467, 285, 263, 288, 306
*ELEMENT, TYPE=C3D4
468, 262, 239, 263, 285
*ELEMENT, TYPE=C3D4
469, 244, 225, 239, 262
*ELEMENT, TYPE=C3D4
470, 229, 207, 225, 244
*ELEMENT, TYPE=C3D4
471, 211, 190, 207, 229
*ELEMENT, TYPE=C3D4
472, 200, 180, 190, 211
*ELEMENT, TYPE=C3D4
473, 184, 163, 180, 200
*ELEMENT, TYPE=C3D4
474, 176, 155, 163, 184
*ELEMENT, TYPE=C3D4
475, 165, 143, 155, 176
*ELEMENT, TYPE=C3D4
476, 159, 138, 143, 165
*ELEMENT, TYPE=C3D4
477, 153, 134, 138, 159
*ELEMENT, TYPE=C3D4
478, 151, 130, 134, 153
*ELEMENT, TYPE=C3D4
479, 148, 124, 130, 151
*ELEMENT, TYPE=C3D4
480, 144, 122, 124, 148
*ELEMENT, TYPE=C3D4
481, 1253, 1246, 1265, 1268
*ELEMENT, TYPE=C3D4
482, 1232, 1226, 1246, 1253
*ELEMENT, TYPE=C3D4
483, 1211, 1205, 1226, 1232
*ELEMENT, TYPE=C3D4
484, 1189, 1184, 1205, 1211
*ELEMENT, TYPE=C3D4
485, 1167, 1164, 1184, 1189
*ELEMENT, TYPE=C3D4
486, 1146, 1143, 1164, 1167
*ELEMENT, TYPE=C3D4
487, 1126, 1122, 1143, 1146
*ELEMENT, TYPE=C3D4
488, 1105, 1101, 1122, 1126
*ELEMENT, TYPE=C3D4
489, 1084, 1079, 1101, 1105
*ELEMENT, TYPE=C3D4
490, 1063, 1058, 1079, 1084
*ELEMENT, TYPE=C3D4
491, 1042, 1037, 1058, 1063
*ELEMENT, TYPE=C3D4
492, 1021, 1016, 1037, 1042
*ELEMENT, TYPE=C3D4
493, 1001, 995, 1016, 1021
*ELEMENT, TYPE=C3D4
494, 979, 974, 995, 1001
*ELEMENT, TYPE=C3D4
495, 958, 953, 974, 979
*ELEMENT, TYPE=C3D4
496, 936, 932, 953, 958
*ELEMENT, TYPE=C3D4
497, 915, 910, 932, 936
*ELEMENT, TYPE=C3D4
498, 894, 890, 910, 915
*ELEMENT, TYPE=C3D4
499, 872, 868, 890, 894
*ELEMENT, TYPE=C3D4
500, 851, 847, 868, 872
*ELEMENT, TYPE=C3D4
501, 831, 826, 847, 851
*ELEMENT, TYPE=C3D4
502, 810, 804, 826, 831
*ELEMENT, TYPE=C3D4
503, 787, 783, 804, 810
*ELEMENT, TYPE=C3D4
504, 766, 761, 783, 787
*ELEMENT, TYPE=C3D4
505, 746, 740, 761, 766
*ELEMENT, TYPE=C3D4
506, 727, 718, 740, 746
*ELEMENT, TYPE=C3D4
507, 705, 697, 718, 727
*ELEMENT, TYPE=C3D4
508, 685, 676, 697, 705
*ELEMENT, TYPE=C3D4
509, 665, 654, 676, 685
*ELEMENT, TYPE=C3D4
510, 644, 632, 654, 665
*ELEMENT, TYPE=C3D4
511, 622, 612, 632, 644
*ELEMENT, TYPE=C3D4
512, 600, 592, 612, 622
*ELEMENT, TYPE=C3D4
513, 579, 571, 592, 600
*ELEMENT, TYPE=C3D4
514, 557, 548, 571, 579
*ELEMENT, TYPE=C3D4
515, 536, 528, 548, 557
*ELEMENT, TYPE=C3D4
516, 512, 506, 528, 536
*ELEMENT, TYPE=C3D4
517, 491, 483, 506, 512
*ELEMENT, TYPE=C3D4
518, 473, 460, 483, 491
*ELEMENT, TYPE=C3D4
519, 451, 438, 460, 473
*ELEMENT, TYPE=C3D4
520, 427, 416, 438, 451
*ELEMENT, TYPE=C3D4
521, 407, 393, 416, 427
*ELEMENT, TYPE=C3D4
522, 386, 369, 393, 407
*ELEMENT, TYPE=C3D4
523, 361, 346, 369, 386
*ELEMENT, TYPE=C3D4
524, 333, 318, 346, 361
*ELEMENT, TYPE=C3D4
525, 310, 292, 318, 333
*ELEMENT, TYPE=C3D4
526, 288, 267, 292, 310
*ELEMENT, TYPE=C3D4
527, 263, 245, 267, 288
*ELEMENT, TYPE=C3D4
528, 239, 227, 245, 263
*ELEMENT, TYPE=C3D4
529, 225, 206, 227, 239
*ELEMENT, TYPE=C3D4
530, 207, 187, 206, 225
*ELEMENT, TYPE=C3D4
531, 190, 174, 187, 207
*ELEMENT, TYPE=C3D4
532, 180, 160, 174, 190
*ELEMENT, TYPE=C3D4
533, 163, 147, 160, 180
*ELEMENT, TYPE=C3D4
534, 155, 136, 147, 163
*ELEMENT, TYPE=C3D4
535, 143, 128, 136, 155
*ELEMENT, TYPE=C3D4
536, 138, 120, 128, 143
*ELEMENT, TYPE=C3D4
537, 134, 114, 120, 138
*ELEMENT, TYPE=C3D4
538, 130, 109, 114, 134
*ELEMENT, TYPE=C3D4
539, 124, 107, 109, 130
*ELEMENT, TYPE=C3D4
540, 122, 105, 107, 124
*ELEMENT, TYPE=C3D4
541, 1246, 1242, 1263, 1265
*ELEMENT, TYPE=C3D4
542, 1226, 1221, 1242, 1246
*ELEMENT, TYPE=C3D4
543, 1205, 1199, 1221, 1226
*ELEMENT, TYPE=C3D4
544, 1184, 1178, 1199, 1205
*ELEMENT, TYPE=C3D4
545, 1164, 1157, 1178, 1184
*ELEMENT, TYPE=C3D4
546, 1143, 1136, 1157, 1164
*ELEMENT, TYPE=C3D4
547, 1122, 1115, 1136, 1143
*ELEMENT, TYPE=C3D4
548, 1101, 1094, 1115, 1122
*ELEMENT, TYPE=C3D4
549, 1079, 1072, 1094, 1101
*ELEMENT, TYPE=C3D4
550, 1058, 1051, 1072, 1079
*ELEMENT, TYPE=C3D4
551, 1037, 1032, 1051, 1058
*ELEMENT, TYPE=C3D4
552, 1016, 1009, 1032, 1037
*ELEMENT, TYPE=C3D4
553, 995, 989, 1009, 1016
*ELEMENT, TYPE=C3D4
554, 974, 968, 989, 995
*ELEMENT, TYPE=C3D4
555, 953, 947, 968, 974
*ELEMENT, TYPE=C3D4
556, 932, 926, 947, 953
*ELEMENT, TYPE=C3D4
557, 910, 905, 926, 932
*ELEMENT, TYPE=C3D4
558, 890, 884, 905, 910
*ELEMENT, TYPE=C3D4
559, 868, 864, 884, 890
*ELEMENT, TYPE=C3D4
560, 847, 842, 864, 868
*ELEMENT, TYPE=C3D4
561, 826, 820, 842, 847
*ELEMENT, TYPE=C3D4
562, 804, 798, 820, 826
*ELEMENT, TYPE=C3D4
563, 783, 778, 798, 804
*ELEMENT, TYPE=C3D4
564, 761, 757, 778, 783
*ELEMENT, TYPE=C3D4
565, 740, 735, 757, 761
*ELEMENT, TYPE=C3D4
566, 718, 713, 735, 740
*ELEMENT, TYPE=C3D4
567, 697, 691, 713, 718
*ELEMENT, TYPE=C3D4
568, 676, 668, 691, 697
*ELEMENT, TYPE=C3D4
569, 654, 648, 668, 676
*ELEMENT, TYPE=C3D4
570, 632, 627, 648, 654
*ELEMENT, TYPE=C3D4
571, 612, 605, 627, 632
*ELEMENT, TYPE=C3D4
572, 592, 583, 605, 612
*ELEMENT, TYPE=C3D4
573, 571, 560, 583, 592
*ELEMENT, TYPE=C3D4
574, 548, 539, 560, 571
*ELEMENT, TYPE=C3D4
575, 528, 517, 539, 548
*ELEMENT, TYPE=C3D4
576, 506, 494, 517, 528
*ELEMENT, TYPE=C3D4
577, 483, 474, 494, 506
*ELEMENT, TYPE=C3D4
578, 460, 450, 474, 483
*ELEMENT, TYPE=C3D4
579, 438, 426, 450, 460
*ELEMENT, TYPE=C3D4
580, 416, 404, 426, 438
*ELEMENT, TYPE=C3D4
581, 393, 381, 404, 416
*ELEMENT, TYPE=C3D4
582, 369, 353, 381, 393
*ELEMENT, TYPE=C3D4
583, 346, 326, 353, 369
*ELEMENT, TYPE=C3D4
584, 318, 298, 326, 346
*ELEMENT, TYPE=C3D4
585, 292, 275, 298, 318
*ELEMENT, TYPE=C3D4
586, 267, 253, 275, 292
*ELEMENT, TYPE=C3D4
587, 245, 230, 253, 267
*ELEMENT, TYPE=C3D4
588, 227, 208, 230, 245
*ELEMENT, TYPE=C3D4
589, 206, 188, 208, 227
*ELEMENT, TYPE=C3D4
590, 187, 172, 188, 206
*ELEMENT, TYPE=C3D4
591, 174, 157, 172, 187
*ELEMENT, TYPE=C3D4
592, 160, 141, 157, 174
*ELEMENT, TYPE=C3D4
593, 147, 132, 141, 160
*ELEMENT, TYPE=C3D4
594, 136, 118, 132, 147
*ELEMENT, TYPE=C3D4
595, 128, 110, 118, 136
*ELEMENT, TYPE=C3D4
596, 120, 101, 110, 128
*ELEMENT, TYPE=C3D4
597, 114, 97, 101, 120
*ELEMENT, TYPE=C3D4
598, 109, 93, 97, 114
*ELEMENT, TYPE=C3D4
599, 107, 91, 93, 109
*ELEMENT, TYPE=C3D4
600, 105, 87, 91, 107
*ELEMENT, TYPE=C3D4
601, 1242, 1240, 1261, 1263
*ELEMENT, TYPE=C3D4
602, 1221, 1218, 1240, 1242
*ELEMENT, TYPE=C3D4
603, 1199, 1197, 1218, 1221
*ELEMENT, TYPE=C3D4
604, 1178, 1176, 1197, 1199
*ELEMENT, TYPE=C3D4
605, 1157, 1155, 1176, 1178
*ELEMENT, TYPE=C3D4
606, 1136, 1133, 1155, 1157
*ELEMENT, TYPE=C3D4
607, 1115, 1111, 1133, 1136
*ELEMENT, TYPE=C3D4
608, 1094, 1090, 1111, 1115
*ELEMENT, TYPE=C3D4
609, 1072, 1069, 1090, 1094
*ELEMENT, TYPE=C3D4
610, 1051, 1048, 1069, 1072
*ELEMENT, TYPE=C3D4
611, 1032, 1027, 1048, 1051
*ELEMENT, TYPE=C3D4
612, 1009, 1005, 1027, 1032
*ELEMENT, TYPE=C3D4
613, 989, 984, 1005, 1009
*ELEMENT, TYPE=C3D4
614, 968, 963, 984, 989
*ELEMENT, TYPE=C3D4
615, 947, 942, 963, 968
*ELEMENT, TYPE=C3D4
616, 926, 919, 942, 947
*ELEMENT, TYPE=C3D4
617, 905, 898, 919, 926
*ELEMENT, TYPE=C3D4
618, 884, 876, 898, 905
*ELEMENT, TYPE=C3D4
619, 864, 854, 876, 884
*ELEMENT, TYPE=C3D4
620, 842, 833, 854, 864
*ELEMENT, TYPE=C3D4
621, 820, 814, 833, 842
*ELEMENT, TYPE=C3D4
622, 798, 794, 814, 820
*ELEMENT, TYPE=C3D4
623, 778, 771, 794, 798
*ELEMENT, TYPE=C3D4
624, 757, 749, 771, 778
*ELEMENT, TYPE=C3D4
625, 735, 729, 749, 757
*ELEMENT, TYPE=C3D4
626, 713, 707, 729, 735
*ELEMENT, TYPE=C3D4
627, 691, 686, 707, 713
*ELEMENT, TYPE=C3D4
628, 668, 664, 686, 691
*ELEMENT, TYPE=C3D4
629, 648, 643, 664, 668
*ELEMENT, TYPE=C3D4
630, 627, 620, 643, 648
*ELEMENT, TYPE=C3D4
631, 605, 597, 620, 627
*ELEMENT, TYPE=C3D4
632, 583, 576, 597, 605
*ELEMENT, TYPE=C3D4
633, 560, 555, 576, 583
*ELEMENT, TYPE=C3D4
634, 539, 531, 555, 560
*ELEMENT, TYPE=C3D4
635, 517, 509, 531, 539
*ELEMENT, TYPE=C3D4
636, 494, 488, 509, 517
*ELEMENT, TYPE=C3D4
637, 474, 462, 488, 494
*ELEMENT, TYPE=C3D4
638, 450, 439, 462, 474
*ELEMENT, TYPE=C3D4
639, 426, 418, 439, 450
*ELEMENT, TYPE=C3D4
640, 404, 391, 418, 426
*ELEMENT, TYPE=C3D4
641, 381, 367, 391, 404
*ELEMENT, TYPE=C3D4
642, 353, 341, 367, 381
*ELEMENT, TYPE=C3D4
643, 326, 313, 341, 353
*ELEMENT, TYPE=C3D4
644, 298, 283, 313, 326
*ELEMENT, TYPE=C3D4
645, 275, 261, 283, 298
*ELEMENT, TYPE=C3D4
646, 253, 236, 261, 275
*ELEMENT, TYPE=C3D4
647, 230, 213, 236, 253
*ELEMENT, TYPE=C3D4
648, 208, 193, 213, 230
*ELEMENT, TYPE=C3D4
649, 188, 175, 193, 208
*ELEMENT, TYPE=C3D4
650, 172, 158, 175, 188
*ELEMENT, TYPE=C3D4
651, 157, 140, 158, 172
*ELEMENT, TYPE=C3D4
652, 141, 125, 140, 157
*ELEMENT, TYPE=C3D4
653, 132, 115, 125, 141
*ELEMENT, TYPE=C3D4
654, 118, 103, 115, 132
*ELEMENT, TYPE=C3D4
655, 110, 95, 103, 118
*ELEMENT, TYPE=C3D4
656, 101, 84, 95, 110
*ELEMENT, TYPE=C3D4
657, 97, 82, 84, 101
*ELEMENT, TYPE=C3D4
658, 93, 76, 82, 97
*ELEMENT, TYPE=C3D4
659, 91, 74, 76, 93
*ELEMENT, TYPE=C3D4
660, 87, 72, 74, 91
*ELEMENT, TYPE=C3D4
661, 1240, 1238, 1259, 1261
*ELEMENT, TYPE=C3D4
662, 1218, 1217, 1238, 1240
*ELEMENT, TYPE=C3D4
663, 1197, 1194, 1217, 1218
*ELEMENT, TYPE=C3D4
664, 1176, 1173, 1194, 1197
*ELEMENT, TYPE=C3D4
665, 1155, 1152, 1173, 1176
*ELEMENT, TYPE=C3D4
666, 1133, 1131, 1152, 1155
*ELEMENT, TYPE=C3D4
667, 1111, 1109, 1131, 1133
*ELEMENT, TYPE=C3D4
668, 1090, 1088, 1109, 1111
*ELEMENT, TYPE=C3D4
669, 1069, 1066, 1088, 1090
*ELEMENT, TYPE=C3D4
670, 1048, 1045, 1066, 1069
*ELEMENT, TYPE=C3D4
671, 1027, 1023, 1045, 1048
*ELEMENT, TYPE=C3D4
672, 1005, 1002, 1023, 1027
*ELEMENT, TYPE=C3D4
673, 984, 981, 1002, 1005
*ELEMENT, TYPE=C3D4
674, 963, 960, 981, 984
*ELEMENT, TYPE=C3D4
675, 942, 939, 960, 963
*ELEMENT, TYPE=C3D4
676, 919, 916, 939, 942
*ELEMENT, TYPE=C3D4
677, 898, 895, 916, 919
*ELEMENT, TYPE=C3D4
678, 876, 874, 895, 898
*ELEMENT, TYPE=C3D4
679, 854, 852, 874, 876
*ELEMENT, TYPE=C3D4
680, 833, 830, 852, 854
*ELEMENT, TYPE=C3D4
681, 814, 807, 830, 833
*ELEMENT, TYPE=C3D4
682, 794, 786, 807, 814
*ELEMENT, TYPE=C3D4
683, 771, 765, 786, 794
*ELEMENT, TYPE=C3D4
684, 749, 743, 765, 771
*ELEMENT, TYPE=C3D4
685, 729, 722, 743, 749
*ELEMENT, TYPE=C3D4
686, 707, 699, 722, 729
*ELEMENT, TYPE=C3D4
687, 686, 677, 699, 707
*ELEMENT, TYPE=C3D4
688, 664, 655, 677, 686
*ELEMENT, TYPE=C3D4
689, 643, 636, 655, 664
*ELEMENT, TYPE=C3D4
690, 620, 613, 636, 643
*ELEMENT, TYPE=C3D4
691, 597, 593, 613, 620
*ELEMENT, TYPE=C3D4
692, 576, 569, 593, 597
*ELEMENT, TYPE=C3D4
693, 555, 545, 569, 576
*ELEMENT, TYPE=C3D4
694, 531, 525, 545, 555
*ELEMENT, TYPE=C3D4
695, 509, 503, 525, 531
*ELEMENT, TYPE=C3D4
696, 488, 478, 503, 509
*ELEMENT, TYPE=C3D4
697, 462, 456, 478, 488
*ELEMENT, TYPE=C3D4
698, 439, 432, 456, 462
*ELEMENT, TYPE=C3D4
699, 418, 408, 432, 439
*ELEMENT, TYPE=C3D4
700, 391, 383, 408, 418
*ELEMENT, TYPE=C3D4
701, 367, 358, 383, 391
*ELEMENT, TYPE=C3D4
702, 341, 324, 358, 367
*ELEMENT, TYPE=C3D4
703, 313, 296, 324, 341
*ELEMENT, TYPE=C3D4
704, 283, 269, 296, 313
*ELEMENT, TYPE=C3D4
705, 261, 243, 269, 283
*ELEMENT, TYPE=C3D4
706, 236, 221, 243, 261
*ELEMENT, TYPE=C3D4
707, 213, 201, 221, 236
*ELEMENT, TYPE=C3D4
708, 193, 181, 201, 213
*ELEMENT, TYPE=C3D4
709, 175, 161, 181, 193
*ELEMENT, TYPE=C3D4
710, 158, 142, 161, 175
*ELEMENT, TYPE=C3D4
711, 140, 127, 142, 158
*ELEMENT, TYPE=C3D4
712, 125, 113, 127, 140
*ELEMENT, TYPE=C3D4
713, 115, 99, 113, 125
*ELEMENT, TYPE=C3D4
714, 103, 89, 99, 115
*ELEMENT, TYPE=C3D4
715, 95, 80, 89, 103
*ELEMENT, TYPE=C3D4
716, 84, 70, 80, 95
*ELEMENT, TYPE=C3D4
717, 82, 66, 70, 84
*ELEMENT, TYPE=C3D4
718, 76, 63, 66, 82
*ELEMENT, TYPE=C3D4
719, 74, 59, 63, 76
*ELEMENT, TYPE=C3D4
720, 72, 57, 59, 74
*ELEMENT, TYPE=C3D4
721, 1238, 1234, 1256, 1259
*ELEMENT, TYPE=C3D4
722, 1217, 1213, 1234, 1238
*ELEMENT, TYPE=C3D4
723, 1194, 1192, 1213, 1217
*ELEMENT, TYPE=C3D4
724, 1173, 1171, 1192, 1194
*ELEMENT, TYPE=C3D4
725, 1152, 1150, 1171, 1173
*ELEMENT, TYPE=C3D4
726, 1131, 1129, 1150, 1152
*ELEMENT, TYPE=C3D4
727, 1109, 1107, 1129, 1131
*ELEMENT, TYPE=C3D4
728, 1088, 1085, 1107, 1109
*ELEMENT, TYPE=C3D4
729, 1066, 1064, 1085, 1088
*ELEMENT, TYPE=C3D4
730, 1045, 1043, 1064, 1066
*ELEMENT, TYPE=C3D4
731, 1023, 1022, 1043, 1045
*ELEMENT, TYPE=C3D4
732, 1002, 1000, 1022, 1023
*ELEMENT, TYPE=C3D4
733, 981, 978, 1000, 1002
*ELEMENT, TYPE=C3D4
734, 960, 957, 978, 981
*ELEMENT, TYPE=C3D4
735, 939, 934, 957, 960
*ELEMENT, TYPE=C3D4
736, 916, 913, 934, 939
*ELEMENT, TYPE=C3D4
737, 895, 892, 913, 916
*ELEMENT, TYPE=C3D4
738, 874, 871, 892, 895
*ELEMENT, TYPE=C3D4
739, 852, 848, 871, 874
*ELEMENT, TYPE=C3D4
740, 830, 827, 848, 852
*ELEMENT, TYPE=C3D4
741, 807, 806, 827, 830
*ELEMENT, TYPE=C3D4
742, 786, 785, 806, 807
*ELEMENT, TYPE=C3D4
743, 765, 762, 785, 786
*ELEMENT, TYPE=C3D4
744, 743, 738, 762, 765
*ELEMENT, TYPE=C3D4
745, 722, 717, 738, 743
*ELEMENT, TYPE=C3D4
746, 699, 696, 717, 722
*ELEMENT, TYPE=C3D4
747, 677, 674, 696, 699
*ELEMENT, TYPE=C3D4
748, 655, 652, 674, 677
*ELEMENT, TYPE=C3D4
749, 636, 629, 652, 655
*ELEMENT, TYPE=C3D4
750, 613, 607, 629, 636
*ELEMENT, TYPE=C3D4
751, 593, 585, 607, 613
*ELEMENT, TYPE=C3D4
752, 569, 562, 585, 593
*ELEMENT, TYPE=C3D4
753, 545, 540, 562, 569
*ELEMENT, TYPE=C3D4
754, 525, 518, 540, 545
*ELEMENT, TYPE=C3D4
755, 503, 492, 518, 525
*ELEMENT, TYPE=C3D4
756, 478, 471, 492, 503
*ELEMENT, TYPE=C3D4
757, 456, 446, 471, 478
*ELEMENT, TYPE=C3D4
758, 432, 424, 446, 456
*ELEMENT, TYPE=C3D4
759, 408, 399, 424, 432
*ELEMENT, TYPE=C3D4
760, 383, 372, 399, 408
*ELEMENT, TYPE=C3D4
761, 358, 347, 372, 383
*ELEMENT, TYPE=C3D4
762, 324, 316, 347, 358
*ELEMENT, TYPE=C3D4
763, 296, 286, 316, 324
*ELEMENT, TYPE=C3D4
764, 269, 258, 286, 296
*ELEMENT, TYPE=C3D4
765, 243, 234, 258, 269
*ELEMENT, TYPE=C3D4
766, 221, 210, 234, 243
*ELEMENT, TYPE=C3D4
767, 201, 185, 210, 221
*ELEMENT, TYPE=C3D4
768, 181, 164, 185, 201
*ELEMENT, TYPE=C3D4
769, 161, 150, 164, 181
*ELEMENT, TYPE=C3D4
770, 142, 133, 150, 161
*ELEMENT, TYPE=C3D4
771, 127, 116, 133, 142
*ELEMENT, TYPE=C3D4
772, 113, 100, 116, 127
*ELEMENT, TYPE=C3D4
773, 99, 86, 100, 113
*ELEMENT, TYPE=C3D4
774, 89, 77, 86, 99
*ELEMENT, TYPE=C3D4
775, 80, 68, 77, 89
*ELEMENT, TYPE=C3D4
776, 70, 61, 68, 80
*ELEMENT, TYPE=C3D4
777, 66, 53, 61, 70
*ELEMENT, TYPE=C3D4
778, 63, 51, 53, 66
*ELEMENT, TYPE=C3D4
779, 59, 46, 51, 63
*ELEMENT, TYPE=C3D4
780, 57, 44, 46, 59
*ELEMENT, TYPE=C3D4
781, 1234, 1233, 1254, 1256
*ELEMENT, TYPE=C3D4
782, 1213, 1212, 1233, 1234
*ELEMENT, TYPE=C3D4
783, 1192, 1191, 1212, 1213
*ELEMENT, TYPE=C3D4
784, 1171, 1169, 1191, 1192
*ELEMENT, TYPE=C3D4
785, 1150, 1147, 1169, 1171
*ELEMENT, TYPE=C3D4
786, 1129, 1125, 1147, 1150
*ELEMENT, TYPE=C3D4
787, 1107, 1104, 1125, 1129
*ELEMENT, TYPE=C3D4
788, 1085, 1083, 1104, 1107
*ELEMENT, TYPE=C3D4
789, 1064, 1062, 1083, 1085
*ELEMENT, TYPE=C3D4
790, 1043, 1041, 1062, 1064
*ELEMENT, TYPE=C3D4
791, 1022, 1019, 1041, 1043
*ELEMENT, TYPE=C3D4
792, 1000, 997, 1019, 1022
*ELEMENT, TYPE=C3D4
793, 978, 975, 997, 1000
*ELEMENT, TYPE=C3D4
794, 957, 954, 975, 978
*ELEMENT, TYPE=C3D4
795, 934, 933, 954, 957
*ELEMENT, TYPE=C3D4
796, 913, 912, 933, 934
*ELEMENT, TYPE=C3D4
797, 892, 889, 912, 913
*ELEMENT, TYPE=C3D4
798, 871, 867, 889, 892
*ELEMENT, TYPE=C3D4
799, 848, 845, 867, 871
*ELEMENT, TYPE=C3D4
800, 827, 824, 845, 848
*ELEMENT, TYPE=C3D4
801, 806, 803, 824, 827
*ELEMENT, TYPE=C3D4
802, 785, 779, 803, 806
*ELEMENT, TYPE=C3D4
803, 762, 758, 779, 785
*ELEMENT, TYPE=C3D4
804, 738, 737, 758, 762
*ELEMENT, TYPE=C3D4
805, 717, 715, 737, 738
*ELEMENT, TYPE=C3D4
806, 696, 693, 715, 717
*ELEMENT, TYPE=C3D4
807, 674, 669, 693, 696
*ELEMENT, TYPE=C3D4
808, 652, 647, 669, 674
*ELEMENT, TYPE=C3D4
809, 629, 625, 647, 652
*ELEMENT, TYPE=C3D4
810, 607, 603, 625, 629
*ELEMENT, TYPE=C3D4
811, 585, 580, 603, 607
*ELEMENT, TYPE=C3D4
812, 562, 558, 580, 585
*ELEMENT, TYPE=C3D4
813, 540, 535, 558, 562
*ELEMENT, TYPE=C3D4
814, 518, 511, 535, 540
*ELEMENT, TYPE=C3D4
815, 492, 489, 511, 518
*ELEMENT, TYPE=C3D4
816, 471, 463, 489, 492
*ELEMENT, TYPE=C3D4
817, 446, 440, 463, 471
*ELEMENT, TYPE=C3D4
818, 424, 415, 440, 446
*ELEMENT, TYPE=C3D4
819, 399, 387, 415, 424
*ELEMENT, TYPE=C3D4
820, 372, 363, 387, 399
*ELEMENT, TYPE=C3D4
821, 347, 331, 363, 372
*ELEMENT, TYPE=C3D4
822, 316, 300, 331, 347
*ELEMENT, TYPE=C3D4
823, 286, 277, 300, 316
*ELEMENT, TYPE=C3D4
824, 258, 249, 277, 286
*ELEMENT, TYPE=C3D4
825, 234, 224, 249, 258
*ELEMENT, TYPE=C3D4
826, 210, 199, 224, 234
*ELEMENT, TYPE=C3D4
827, 185, 179, 199, 210
*ELEMENT, TYPE=C3D4
828, 164, 156, 179, 185
*ELEMENT, TYPE=C3D4
829, 150, 137, 156, 164
*ELEMENT, TYPE=C3D4
830, 133, 119, 137, 150
*ELEMENT, TYPE=C3D4
831, 116, 104, 119, 133
*ELEMENT, TYPE=C3D4
832, 100, 90, 104, 116
*ELEMENT, TYPE=C3D4
833, 86, 79, 90, 100
*ELEMENT, TYPE=C3D4
834, 77, 65, 79, 86
*ELEMENT, TYPE=C3D4
835, 68, 55, 65, 77
*ELEMENT, TYPE=C3D4
836, 61, 49, 55, 68
*ELEMENT, TYPE=C3D4
837, 53, 42, 49, 61
*ELEMENT, TYPE=C3D4
838, 51, 38, 42, 53
*ELEMENT, TYPE=C3D4
839, 46, 36, 38, 51
*ELEMENT, TYPE=C3D4
840, 44, 34, 36, 46
*ELEMENT, TYPE=C3D4
841, 1233, 1231, 1252, 1254
*ELEMENT, TYPE=C3D4
842, 1212, 1209, 1231, 1233
*ELEMENT, TYPE=C3D4
843, 1191, 1187, 1209, 1212
*ELEMENT, TYPE=C3D4
844, 1169, 1166, 1187, 1191
*ELEMENT, TYPE=C3D4
845, 1147, 1145, 1166, 1169
*ELEMENT, TYPE=C3D4
846, 1125, 1124, 1145, 1147
*ELEMENT, TYPE=C3D4
847, 1104, 1103, 1124, 1125
*ELEMENT, TYPE=C3D4
848, 1083, 1082, 1103, 1104
*ELEMENT, TYPE=C3D4
849, 1062, 1059, 1082, 1083
*ELEMENT, TYPE=C3D4
850, 1041, 1038, 1059, 1062
*ELEMENT, TYPE=C3D4
851, 1019, 1017, 1038, 1041
*ELEMENT, TYPE=C3D4
852, 997, 994, 1017, 1019
*ELEMENT, TYPE=C3D4
853, 975, 973, 994, 997
*ELEMENT, TYPE=C3D4
854, 954, 952, 973, 975
*ELEMENT, TYPE=C3D4
855, 933, 930, 952, 954
*ELEMENT, TYPE=C3D4
856, 912, 908, 930, 933
*ELEMENT, TYPE=C3D4
857, 889, 886, 908, 912
*ELEMENT, TYPE=C3D4
858, 867, 865, 886, 889
*ELEMENT, TYPE=C3D4
859, 845, 844, 865, 867
*ELEMENT, TYPE=C3D4
860, 824, 821, 844, 845
*ELEMENT, TYPE=C3D4
861, 803, 799, 821, 824
*ELEMENT, TYPE=C3D4
862, 779, 777, 799, 803
*ELEMENT, TYPE=C3D4
863, 758, 755, 777, 779
*ELEMENT, TYPE=C3D4
864, 737, 733, 755, 758
*ELEMENT, TYPE=C3D4
865, 715, 711, 733, 737
*ELEMENT, TYPE=C3D4
866, 693, 688, 711, 715
*ELEMENT, TYPE=C3D4
867, 669, 667, 688, 693
*ELEMENT, TYPE=C3D4
868, 647, 645, 667, 669
*ELEMENT, TYPE=C3D4
869, 625, 624, 645, 647
*ELEMENT, TYPE=C3D4
870, 603, 599, 624, 625
*ELEMENT, TYPE=C3D4
871, 580, 577, 599, 603
*ELEMENT, TYPE=C3D4
872, 558, 554, 577, 580
*ELEMENT, TYPE=C3D4
873, 535, 530, 554, 558
*ELEMENT, TYPE=C3D4
874, 511, 508, 530, 535
*ELEMENT, TYPE=C3D4
875, 489, 484, 508, 511
*ELEMENT, TYPE=C3D4
876, 463, 459, 484, 489
*ELEMENT, TYPE=C3D4
877, 440, 435, 459, 463
*ELEMENT, TYPE=C3D4
878, 415, 409, 435, 440
*ELEMENT, TYPE=C3D4
879, 387, 384, 409, 415
*ELEMENT, TYPE=C3D4
880, 363, 359, 384, 387
*ELEMENT, TYPE=C3D4
881, 331, 322, 359, 363
*ELEMENT, TYPE=C3D4
882, 300, 294, 322, 331
*ELEMENT, TYPE=C3D4
883, 277, 265, 294, 300
*ELEMENT, TYPE=C3D4
884, 249, 238, 265, 277
*ELEMENT, TYPE=C3D4
885, 224, 214, 238, 249
*ELEMENT, TYPE=C3D4
886, 199, 189, 214, 224
*ELEMENT, TYPE=C3D4
887, 179, 166, 189, 199
*ELEMENT, TYPE=C3D4
888, 156, 146, 166, 179
*ELEMENT, TYPE=C3D4
889, 137, 129, 146, 156
*ELEMENT, TYPE=C3D4
890, 119, 112, 129, 137
*ELEMENT, TYPE=C3D4
891, 104, 96, 112, 119
*ELEMENT, TYPE=C3D4
892, 90, 81, 96, 104
*ELEMENT, TYPE=C3D4
893, 79, 69, 81, 90
*ELEMENT, TYPE=C3D4
894, 65, 56, 69, 79
*ELEMENT, TYPE=C3D4
895, 55, 48, 56, 65
*ELEMENT, TYPE=C3D4
896, 49, 40, 48, 55
*ELEMENT, TYPE=C3D4
897, 42, 32, 40, 49
*ELEMENT, TYPE=C3D4
898, 38, 29, 32, 42
*ELEMENT, TYPE=C3D4
899, 36, 27, 29, 38
*ELEMENT, TYPE=C3D4
900, 34, 23, 27, 36
*ELEMENT, TYPE=C3D4
901, 1231, 1228, 1250, 1252
*ELEMENT, TYPE=C3D4
902, 1209, 1207, 1228, 1231
*ELEMENT, TYPE=C3D4
903, 1187, 1186, 1207, 1209
*ELEMENT, TYPE=C3D4
904, 1166, 1165, 1186, 1187
*ELEMENT, TYPE=C3D4
905, 1145, 1144, 1165, 1166
*ELEMENT, TYPE=C3D4
906, 1124, 1123, 1144, 1145
*ELEMENT, TYPE=C3D4
907, 1103, 1100, 1123, 1124
*ELEMENT, TYPE=C3D4
908, 1082, 1078, 1100, 1103
*ELEMENT, TYPE=C3D4
909, 1059, 1057, 1078, 1082
*ELEMENT, TYPE=C3D4
910, 1038, 1035, 1057, 1059
*ELEMENT, TYPE=C3D4
911, 1017, 1014, 1035, 1038
*ELEMENT, TYPE=C3D4
912, 994, 993, 1014, 1017
*ELEMENT, TYPE=C3D4
913, 973, 971, 993, 994
*ELEMENT, TYPE=C3D4
914, 952, 949, 971, 973
*ELEMENT, TYPE=C3D4
915, 930, 927, 949, 952
*ELEMENT, TYPE=C3D4
916, 908, 906, 927, 930
*ELEMENT, TYPE=C3D4
917, 886, 885, 906, 908
*ELEMENT, TYPE=C3D4
918, 865, 863, 885, 886
*ELEMENT, TYPE=C3D4
919, 844, 841, 863, 865
*ELEMENT, TYPE=C3D4
920, 821, 818, 841, 844
*ELEMENT, TYPE=C3D4
921, 799, 796, 818, 821
*ELEMENT, TYPE=C3D4
922, 777, 775, 796, 799
*ELEMENT, TYPE=C3D4
923, 755, 753, 775, 777
*ELEMENT, TYPE=C3D4
924, 733, 730, 753, 755
*ELEMENT, TYPE=C3D4
925, 711, 708, 730, 733
*ELEMENT, TYPE=C3D4
926, 688, 687, 708, 711
*ELEMENT, TYPE=C3D4
927, 667, 663, 687, 688
*ELEMENT, TYPE=C3D4
928, 645, 642, 663, 667
*ELEMENT, TYPE=C3D4
929, 624, 618, 642, 645
*ELEMENT, TYPE=C3D4
930, 599, 596, 618, 624
*ELEMENT, TYPE=C3D4
931, 577, 574, 596, 599
*ELEMENT, TYPE=C3D4
932, 554, 550, 574, 577
*ELEMENT, TYPE=C3D4
933, 530, 527, 550, 554
*ELEMENT, TYPE=C3D4
934, 508, 504, 527, 530
*ELEMENT, TYPE=C3D4
935, 484, 479, 504, 508
*ELEMENT, TYPE=C3D4
936, 459, 455, 479, 484
*ELEMENT, TYPE=C3D4
937, 435, 431, 455, 459
*ELEMENT, TYPE=C3D4
938, 409, 405, 431, 435
*ELEMENT, TYPE=C3D4
939, 384, 377, 405, 409
*ELEMENT, TYPE=C3D4
940, 359, 349, 377, 384
*ELEMENT, TYPE=C3D4
941, 322, 320, 349, 359
*ELEMENT, TYPE=C3D4
942, 294, 290, 320, 322
*ELEMENT, TYPE=C3D4
943, 265, 259, 290, 294
*ELEMENT, TYPE=C3D4
944, 238, 232, 259, 265
*ELEMENT, TYPE=C3D4
945, 214, 205, 232, 238
*ELEMENT, TYPE=C3D4
946, 189, 183, 205, 214
*ELEMENT, TYPE=C3D4
947, 166, 162, 183, 189
*ELEMENT, TYPE=C3D4
948, 146, 139, 162, 166
*ELEMENT, TYPE=C3D4
949, 129, 121, 139, 146
*ELEMENT, TYPE=C3D4
950, 112, 102, 121, 129
*ELEMENT, TYPE=C3D4
951, 96, 85, 102, 112
*ELEMENT, TYPE=C3D4
952, 81, 71, 85, 96
*ELEMENT, TYPE=C3D4
953, 69, 62, 71, 81
*ELEMENT, TYPE=C3D4
954, 56, 50, 62, 69
*ELEMENT, TYPE=C3D4
955, 48, 41, 50, 56
*ELEMENT, TYPE=C3D4
956, 40, 31, 41, 48
*ELEMENT, TYPE=C3D4
957, 32, 25, 31, 40
*ELEMENT, TYPE=C3D4
958, 29, 21, 25, 32
*ELEMENT, TYPE=C3D4
959, 27, 18, 21, 29
*ELEMENT, TYPE=C3D4
960, 23, 16, 18, 27
*ELEMENT, TYPE=C3D4
961, 1228, 1227, 1248, 1250
*ELEMENT, TYPE=C3D4
962, 1207, 1206, 1227, 1228
*ELEMENT, TYPE=C3D4
963, 1186, 1185, 1206, 1207
*ELEMENT, TYPE=C3D4
964, 1165, 1163, 1185, 1186
*ELEMENT, TYPE=C3D4
965, 1144, 1141, 1163, 1165
*ELEMENT, TYPE=C3D4
966, 1123, 1119, 1141, 1144
*ELEMENT, TYPE=C3D4
967, 1100, 1098, 1119, 1123
*ELEMENT, TYPE=C3D4
968, 1078, 1077, 1098, 1100
*ELEMENT, TYPE=C3D4
969, 1057, 1056, 1077, 1078
*ELEMENT, TYPE=C3D4
970, 1035, 1034, 1056, 1057
*ELEMENT, TYPE=C3D4
971, 1014, 1013, 1034, 1035
*ELEMENT, TYPE=C3D4
972, 993, 991, 1013, 1014
*ELEMENT, TYPE=C3D4
973, 971, 969, 991, 993
*ELEMENT, TYPE=C3D4
974, 949, 946, 969, 971
*ELEMENT, TYPE=C3D4
975, 927, 925, 946, 949
*ELEMENT, TYPE=C3D4
976, 906, 904, 925, 927
*ELEMENT, TYPE=C3D4
977, 885, 883, 904, 906
*ELEMENT, TYPE=C3D4
978, 863, 861, 883, 885
*ELEMENT, TYPE=C3D4
979, 841, 837, 861, 863
*ELEMENT, TYPE=C3D4
980, 818, 816, 837, 841
*ELEMENT, TYPE=C3D4
981, 796, 795, 816, 818
*ELEMENT, TYPE=C3D4
982, 775, 774, 795, 796
*ELEMENT, TYPE=C3D4
983, 753, 750, 774, 775
*ELEMENT, TYPE=C3D4
984, 730, 728, 750, 753
*ELEMENT, TYPE=C3D4
985, 708, 706, 728, 730
*ELEMENT, TYPE=C3D4
986, 687, 683, 706, 708
*ELEMENT, TYPE=C3D4
987, 663, 662, 683, 687
*ELEMENT, TYPE=C3D4
988, 642, 638, 662, 663
*ELEMENT, TYPE=C3D4
989, 618, 616, 638, 642
*ELEMENT, TYPE=C3D4
990, 596, 594, 616, 618
*ELEMENT, TYPE=C3D4
991, 574, 572, 594, 596
*ELEMENT, TYPE=C3D4
992, 550, 546, 572, 574
*ELEMENT, TYPE=C3D4
993, 527, 523, 546, 550
*ELEMENT, TYPE=C3D4
994, 504, 500, 523, 527
*ELEMENT, TYPE=C3D4
995, 479, 476, 500, 504
*ELEMENT, TYPE=C3D4
996, 455, 452, 476, 479
*ELEMENT, TYPE=C3D4
997, 431, 425, 452, 455
*ELEMENT, TYPE=C3D4
998, 405, 402, 425, 431
*ELEMENT, TYPE=C3D4
999, 377, 374, 402, 405
*ELEMENT, TYPE=C3D4
1000, 349, 343, 374, 377
*ELEMENT, TYPE=C3D4
1001, 320, 314, 343, 349
*ELEMENT, TYPE=C3D4
1002, 290, 281, 314, 320
*ELEMENT, TYPE=C3D4
1003, 259, 255, 281, 290
*ELEMENT, TYPE=C3D4
1004, 232, 228, 255, 259
*ELEMENT, TYPE=C3D4
1005, 205, 203, 228, 232
*ELEMENT, TYPE=C3D4
1006, 183, 178, 203, 205
*ELEMENT, TYPE=C3D4
1007, 162, 154, 178, 183
*ELEMENT, TYPE=C3D4
1008, 139, 135, 154, 162
*ELEMENT, TYPE=C3D4
1009, 121, 117, 135, 139
*ELEMENT, TYPE=C3D4
1010, 102, 98, 117, 121
*ELEMENT, TYPE=C3D4
1011, 85, 83, 98, 102
*ELEMENT, TYPE=C3D4
1012, 71, 67, 83, 85
*ELEMENT, TYPE=C3D4
1013, 62, 54, 67, 71
*ELEMENT, TYPE=C3D4
1014, 50, 43, 54, 62
*ELEMENT, TYPE=C3D4
1015, 41, 33, 43, 50
*ELEMENT, TYPE=C3D4
1016, 31, 26, 33, 41
*ELEMENT, TYPE=C3D4
1017, 25, 20, 26, 31
*ELEMENT, TYPE=C3D4
1018, 21, 14, 20, 25
*ELEMENT, TYPE=C3D4
1019, 18, 12, 14, 21
*ELEMENT, TYPE=C3D4
1020, 16, 10, 12, 18
*ELEMENT, TYPE=C3D4
1021, 1227, 1225, 1247, 1248
*ELEMENT, TYPE=C3D4
1022, 1206, 1204, 1225, 1227
*ELEMENT, TYPE=C3D4
1023, 1185, 1183, 1204, 1206
*ELEMENT, TYPE=C3D4
1024, 1163, 1161, 1183, 1185
*ELEMENT, TYPE=C3D4
1025, 1141, 1140, 1161, 1163
*ELEMENT, TYPE=C3D4
1026, 1119, 1118, 1140, 1141
*ELEMENT, TYPE=C3D4
1027, 1098, 1097, 1118, 1119
*ELEMENT, TYPE=C3D4
1028, 1077, 1076, 1097, 1098
*ELEMENT, TYPE=C3D4
1029, 1056, 1054, 1076, 1077
*ELEMENT, TYPE=C3D4
1030, 1034, 1033, 1054, 1056
*ELEMENT, TYPE=C3D4
1031, 1013, 1010, 1033, 1034
*ELEMENT, TYPE=C3D4
1032, 991, 988, 1010, 1013
*ELEMENT, TYPE=C3D4
1033, 969, 967, 988, 991
*ELEMENT, TYPE=C3D4
1034, 946, 945, 967, 969
*ELEMENT, TYPE=C3D4
1035, 925, 924, 945, 946
*ELEMENT, TYPE=C3D4
1036, 904, 903, 924, 925
*ELEMENT, TYPE=C3D4
1037, 883, 881, 903, 904
*ELEMENT, TYPE=C3D4
1038, 861, 857, 881, 883
*ELEMENT, TYPE=C3D4
1039, 837, 836, 857, 861
*ELEMENT, TYPE=C3D4
1040, 816, 815, 836, 837
*ELEMENT, TYPE=C3D4
1041, 795, 793, 815, 816
*ELEMENT, TYPE=C3D4
1042, 774, 770, 793, 795
*ELEMENT, TYPE=C3D4
1043, 750, 748, 770, 774
*ELEMENT, TYPE=C3D4
1044, 728, 725, 748, 750
*ELEMENT, TYPE=C3D4
1045, 706, 704, 725, 728
*ELEMENT, TYPE=C3D4
1046, 683, 682, 704, 706
*ELEMENT, TYPE=C3D4
1047, 662, 659, 682, 683
*ELEMENT, TYPE=C3D4
1048, 638, 637, 659, 662
*ELEMENT, TYPE=C3D4
1049, 616, 615, 637, 638
*ELEMENT, TYPE=C3D4
1050, 594, 591, 615, 616
*ELEMENT, TYPE=C3D4
1051, 572, 568, 591, 594
*ELEMENT, TYPE=C3D4
1052, 546, 544, 568, 572
*ELEMENT, TYPE=C3D4
1053, 523, 522, 544, 546
*ELEMENT, TYPE=C3D4
1054, 500, 497, 522, 523
*ELEMENT, TYPE=C3D4
1055, 476, 475, 497, 500
*ELEMENT, TYPE=C3D4
1056, 452, 449, 475, 476
*ELEMENT, TYPE=C3D4
1057, 425, 423, 449, 452
*ELEMENT, TYPE=C3D4
1058, 402, 398, 423, 425
*ELEMENT, TYPE=C3D4
1059, 374, 370, 398, 402
*ELEMENT, TYPE=C3D4
1060, 343, 339, 370, 374
*ELEMENT, TYPE=C3D4
1061, 314, 308, 339, 343
*ELEMENT, TYPE=C3D4
1062, 281, 279, 308, 314
*ELEMENT, TYPE=C3D4
1063, 255, 251, 279, 281
*ELEMENT, TYPE=C3D4
1064, 228, 222, 251, 255
*ELEMENT, TYPE=C3D4
1065, 203, 197, 222, 228
*ELEMENT, TYPE=C3D4
1066, 178, 173, 197, 203
*ELEMENT, TYPE=C3D4
1067, 154, 152, 173, 178
*ELEMENT, TYPE=C3D4
1068, 135, 131, 152, 154
*ELEMENT, TYPE=C3D4
1069, 117, 111, 131, 135
*ELEMENT, TYPE=C3D4
1070, 98, 94, 111, 117
*ELEMENT, TYPE=C3D4
1071, 83, 78, 94, 98
*ELEMENT, TYPE=C3D4
1072, 67, 64, 78, 83
*ELEMENT, TYPE=C3D4
1073, 54, 52, 64, 67
*ELEMENT, TYPE=C3D4
1074, 43, 39, 52, 54
*ELEMENT, TYPE=C3D4
1075, 33, 30, 39, 43
*ELEMENT, TYPE=C3D4
1076, 26, 22, 30, 33
*ELEMENT, TYPE=C3D4
1077, 20, 15, 22, 26
*ELEMENT, TYPE=C3D4
1078, 14, 9, 15, 20
*ELEMENT, TYPE=C3D4
1079, 12, 7, 9, 14
*ELEMENT, TYPE=C3D4
1080, 10, 5, 7, 12
*ELEMENT, TYPE=C3D4
1081, 1225, 1224, 1245, 1247
*ELEMENT, TYPE=C3D4
1082, 1204, 1203, 1224, 1225
*ELEMENT, TYPE=C3D4
1083, 1183, 1181, 1203, 1204
*ELEMENT, TYPE=C3D4
1084, 1161, 1160, 1181, 1183
*ELEMENT, TYPE=C3D4
1085, 1140, 1138, 1160, 1161
*ELEMENT, TYPE=C3D4
1086, 1118, 1117, 1138, 1140
*ELEMENT, TYPE=C3D4
1087, 1097, 1096, 1117, 1118
*ELEMENT, TYPE=C3D4
1088, 1076, 1075, 1096, 1097
*ELEMENT, TYPE=C3D4
1089, 1054, 1053, 1075, 1076
*ELEMENT, TYPE=C3D4
1090, 1033, 1031, 1053, 1054
*ELEMENT, TYPE=C3D4
1091, 1010, 1008, 1031, 1033
*ELEMENT, TYPE=C3D4
1092, 988, 987, 1008, 1010
*ELEMENT, TYPE=C3D4
1093, 967, 965, 987, 988
*ELEMENT, TYPE=C3D4
1094, 945, 944, 965, 967
*ELEMENT, TYPE=C3D4
1095, 924, 923, 944, 945
*ELEMENT, TYPE=C3D4
1096, 903, 901, 923, 924
*ELEMENT, TYPE=C3D4
1097, 881, 879, 901, 903
*ELEMENT, TYPE=C3D4
1098, 857, 856, 879, 881
*ELEMENT, TYPE=C3D4
1099, 836, 835, 856, 857
*ELEMENT, TYPE=C3D4
1100, 815, 813, 835, 836
*ELEMENT, TYPE=C3D4
1101, 793, 792, 813, 815
*ELEMENT, TYPE=C3D4
1102, 770, 768, 792, 793
*ELEMENT, TYPE=C3D4
1103, 748, 747, 768, 770
*ELEMENT, TYPE=C3D4
1104, 725, 724, 747, 748
*ELEMENT, TYPE=C3D4
1105, 704, 703, 724, 725
*ELEMENT, TYPE=C3D4
1106, 682, 680, 703, 704
*ELEMENT, TYPE=C3D4
1107, 659, 657, 680, 682
*ELEMENT, TYPE=C3D4
1108, 637, 634, 657, 659
*ELEMENT, TYPE=C3D4
1109, 615, 611, 634, 637
*ELEMENT, TYPE=C3D4
1110, 591, 590, 611, 615
*ELEMENT, TYPE=C3D4
1111, 568, 565, 590, 591
*ELEMENT, TYPE=C3D4
1112, 544, 543, 565, 568
*ELEMENT, TYPE=C3D4
1113, 522, 521, 543, 544
*ELEMENT, TYPE=C3D4
1114, 497, 495, 521, 522
*ELEMENT, TYPE=C3D4
1115, 475, 472, 495, 497
*ELEMENT, TYPE=C3D4
1116, 449, 444, 472, 475
*ELEMENT, TYPE=C3D4
1117, 423, 422, 444, 449
*ELEMENT, TYPE=C3D4
1118, 398, 397, 422, 423
*ELEMENT, TYPE=C3D4
1119, 370, 366, 397, 398
*ELEMENT, TYPE=C3D4
1120, 339, 337, 366, 370
*ELEMENT, TYPE=C3D4
1121, 308, 304, 337, 339
*ELEMENT, TYPE=C3D4
1122, 279, 276, 304, 308
*ELEMENT, TYPE=C3D4
1123, 251, 247, 276, 279
*ELEMENT, TYPE=C3D4
1124, 222, 218, 247, 251
*ELEMENT, TYPE=C3D4
1125, 197, 195, 218, 222
*ELEMENT, TYPE=C3D4
1126, 173, 170, 195, 197
*ELEMENT, TYPE=C3D4
1127, 152, 149, 170, 173
*ELEMENT, TYPE=C3D4
1128, 131, 126, 149, 152
*ELEMENT, TYPE=C3D4
1129, 111, 108, 126, 131
*ELEMENT, TYPE=C3D4
1130, 94, 92, 108, 111
*ELEMENT, TYPE=C3D4
1131, 78, 75, 92, 94
*ELEMENT, TYPE=C3D4
1132, 64, 60, 75, 78
*ELEMENT, TYPE=C3D4
1133, 52, 47, 60, 64
*ELEMENT, TYPE=C3D4
1134, 39, 37, 47, 52
*ELEMENT, TYPE=C3D4
1135, 30, 28, 37, 39
*ELEMENT, TYPE=C3D4
1136, 22, 19, 28, 30
*ELEMENT, TYPE=C3D4
1137, 15, 13, 19, 22
*ELEMENT, TYPE=C3D4
1138, 9, 8, 13, 15
*ELEMENT, TYPE=C3D4
1139, 7, 4, 8, 9
*ELEMENT, TYPE=C3D4
1140, 5, 2, 4, 7
*ELEMENT, TYPE=C3D4
1141, 1224, 1223, 1244, 1245
*ELEMENT, TYPE=C3D4
1142, 1203, 1202, 1223, 1224
*ELEMENT, TYPE=C3D4
1143, 1181, 1180, 1202, 1203
*ELEMENT, TYPE=C3D4
1144, 1160, 1159, 1180, 1181
*ELEMENT, TYPE=C3D4
1145, 1138, 1137, 1159, 1160
*ELEMENT, TYPE=C3D4
1146, 1117, 1116, 1137, 1138
*ELEMENT, TYPE=C3D4
1147, 1096, 1095, 1116, 1117
*ELEMENT, TYPE=C3D4
1148, 1075, 1074, 1095, 1096
*ELEMENT, TYPE=C3D4
1149, 1053, 1052, 1074, 1075
*ELEMENT, TYPE=C3D4
1150, 1031, 1029, 1052, 1053
*ELEMENT, TYPE=C3D4
1151, 1008, 1007, 1029, 1031
*ELEMENT, TYPE=C3D4
1152, 987, 986, 1007, 1008
*ELEMENT, TYPE=C3D4
1153, 965, 964, 986, 987
*ELEMENT, TYPE=C3D4
1154, 944, 943, 964, 965
*ELEMENT, TYPE=C3D4
1155, 923, 922, 943, 944
*ELEMENT, TYPE=C3D4
1156, 901, 900, 922, 923
*ELEMENT, TYPE=C3D4
1157, 879, 878, 900, 901
*ELEMENT, TYPE=C3D4
1158, 856, 855, 878, 879
*ELEMENT, TYPE=C3D4
1159, 835, 834, 855, 856
*ELEMENT, TYPE=C3D4
1160, 813, 812, 834, 835
*ELEMENT, TYPE=C3D4
1161, 792, 790, 812, 813
*ELEMENT, TYPE=C3D4
1162, 768, 767, 790, 792
*ELEMENT, TYPE=C3D4
1163, 747, 745, 767, 768
*ELEMENT, TYPE=C3D4
1164, 724, 723, 745, 747
*ELEMENT, TYPE=C3D4
1165, 703, 702, 723, 724
*ELEMENT, TYPE=C3D4
1166, 680, 678, 702, 703
*ELEMENT, TYPE=C3D4
1167, 657, 656, 678, 680
*ELEMENT, TYPE=C3D4
1168, 634, 633, 656, 657
*ELEMENT, TYPE=C3D4
1169, 611, 610, 633, 634
*ELEMENT, TYPE=C3D4
1170, 590, 588, 610, 611
*ELEMENT, TYPE=C3D4
1171, 565, 564, 588, 590
*ELEMENT, TYPE=C3D4
1172, 543, 541, 564, 565
*ELEMENT, TYPE=C3D4
1173, 521, 519, 541, 543
*ELEMENT, TYPE=C3D4
1174, 495, 493, 519, 521
*ELEMENT, TYPE=C3D4
1175, 472, 470, 493, 495
*ELEMENT, TYPE=C3D4
1176, 444, 443, 470, 472
*ELEMENT, TYPE=C3D4
1177, 422, 419, 443, 444
*ELEMENT, TYPE=C3D4
1178, 397, 394, 419, 422
*ELEMENT, TYPE=C3D4
1179, 366, 364, 394, 397
*ELEMENT, TYPE=C3D4
1180, 337, 335, 364, 366
*ELEMENT, TYPE=C3D4
1181, 304, 302, 335, 337
*ELEMENT, TYPE=C3D4
1182, 276, 271, 302, 304
*ELEMENT, TYPE=C3D4
1183, 247, 242, 271, 276
*ELEMENT, TYPE=C3D4
1184, 218, 216, 242, 247
*ELEMENT, TYPE=C3D4
1185, 195, 192, 216, 218
*ELEMENT, TYPE=C3D4
1186, 170, 168, 192, 195
*ELEMENT, TYPE=C3D4
1187, 149, 145, 168, 170
*ELEMENT, TYPE=C3D4
1188, 126, 123, 145, 149
*ELEMENT, TYPE=C3D4
1189, 108, 106, 123, 126
*ELEMENT, TYPE=C3D4
1190, 92, 88, 106, 108
*ELEMENT, TYPE=C3D4
1191, 75, 73, 88, 92
*ELEMENT, TYPE=C3D4
1192, 60, 58, 73, 75
*ELEMENT, TYPE=C3D4
1193, 47, 45, 58, 60
*ELEMENT, TYPE=C3D4
1194, 37, 35, 45, 47
*ELEMENT, TYPE=C3D4
1195, 28, 24, 35, 37
*ELEMENT, TYPE=C3D4
1196, 19, 17, 24, 28
*ELEMENT, TYPE=C3D4
1197, 13, 11, 17, 19
*ELEMENT, TYPE=C3D4
1198, 8, 6, 11, 13
*ELEMENT, TYPE=C3D4
1199, 4, 3, 6, 8
*ELEMENT, TYPE=C3D4
1200, 2, 1, 3, 4

*MATERIAL,NAME=UserDefined
*MATERIAL,NAME=TrussProperties
*MATERIAL,NAME=BeamProperties
*MATERIAL,NAME=Isotropic2D
*MATERIAL,NAME=Isotropic3D
*MATERIAL,NAME=DruckerPrager
*MATERIAL,NAME=IsotropicDamage3D
*MATERIAL,NAME=Isotropic3Dshell
*MATERIAL,NAME=GroutingMortar
*MATERIAL,NAME=VonMises
*MATERIAL,NAME=PhaseField
*MATERIAL,NAME=CamClay

*ELSET,ELSET=Isotropic2D_Set
1,
2,
3,
4,
5,
6,
7,
8,
9,
10,
11,
12,
13,
14,
15,
16,
17,
18,
19,
20,
21,
22,
23,
24,
25,
26,
27,
28,
29,
30,
31,
32,
33,
34,
35,
36,
37,
38,
39,
40,
41,
42,
43,
44,
45,
46,
47,
48,
49,
50,
51,
52,
53,
54,
55,
56,
57,
58,
59,
60,
61,
62,
63,
64,
65,
66,
67,
68,
69,
70,
71,
72,
73,
74,
75,
76,
77,
78,
79,
80,
81,
82,
83,
84,
85,
86,
87,
88,
89,
90,
91,
92,
93,
94,
95,
96,
97,
98,
99,
100,
101,
102,
103,
104,
105,
106,
107,
108,
109,
110,
111,
112,
113,
114,
115,
116,
117,
118,
119,
120,
121,
122,
123,
124,
125,
126,
127,
128,
129,
130,
131,
132,
133,
134,
135,
136,
137,
138,
139,
140,
141,
142,
143,
144,
145,
146,
147,
148,
149,
150,
151,
152,
153,
154,
155,
156,
157,
158,
159,
160,
161,
162,
163,
164,
165,
166,
167,
168,
169,
170,
171,
172,
173,
174,
175,
176,
177,
178,
179,
180,
181,
182,
183,
184,
185,
186,
187,
188,
189,
190,
191,
192,
193,
194,
195,
196,
197,
198,
199,
200,
201,
202,
203,
204,
205,
206,
207,
208,
209,
210,
211,
212,
213,
214,
215,
216,
217,
218,
219,
220,
221,
222,
223,
224,
225,
226,
227,
228,
229,
230,
231,
232,
233,
234,
235,
236,
237,
238,
239,
240,
241,
242,
243,
244,
245,
246,
247,
248,
249,
250,
251,
252,
253,
254,
255,
256,
257,
258,
259,
260,
261,
262,
263,
264,
265,
266,
267,
268,
269,
270,
271,
272,
273,
274,
275,
276,
277,
278,
279,
280,
281,
282,
283,
284,
285,
286,
287,
288,
289,
290,
291,
292,
293,
294,
295,
296,
297,
298,
299,
300,
301,
302,
303,
304,
305,
306,
307,
308,
309,
310,
311,
312,
313,
314,
315,
316,
317,
318,
319,
320,
321,
322,
323,
324,
325,
326,
327,
328,
329,
330,
331,
332,
333,
334,
335,
336,
337,
338,
339,
340,
341,
342,
343,
344,
345,
346,
347,
348,
349,
350,
351,
352,
353,
354,
355,
356,
357,
358,
359,
360,
361,
362,
363,
364,
365,
366,
367,
368,
369,
370,
371,
372,
373,
374,
375,
376,
377,
378,
379,
380,
381,
382,
383,
384,
385,
386,
387,
388,
389,
390,
391,
392,
393,
394,
395,
396,
397,
398,
399,
400,
401,
402,
403,
404,
405,
406,
407,
408,
409,
410,
411,
412,
413,
414,
415,
416,
417,
418,
419,
420,
421,
422,
423,
424,
425,
426,
427,
428,
429,
430,
431,
432,
433,
434,
435,
436,
437,
438,
439,
440,
441,
442,
443,
444,
445,
446,
447,
448,
449,
450,
451,
452,
453,
454,
455,
456,
457,
458,
459,
460,
461,
462,
463,
464,
465,
466,
467,
468,
469,
470,
471,
472,
473,
474,
475,
476,
477,
478,
479,
480,
481,
482,
483,
484,
485,
486,
487,
488,
489,
490,
491,
492,
493,
494,
495,
496,
497,
498,
499,
500,
501,
502,
503,
504,
505,
506,
507,
508,
509,
510,
511,
512,
513,
514,
515,
516,
517,
518,
519,
520,
521,
522,
523,
524,
525,
526,
527,
528,
529,
530,
531,
532,
533,
534,
535,
536,
537,
538,
539,
540,
541,
542,
543,
544,
545,
546,
547,
548,
549,
550,
551,
552,
553,
554,
555,
556,
557,
558,
559,
560,
561,
562,
563,
564,
565,
566,
567,
568,
569,
570,
571,
572,
573,
574,
575,
576,
577,
578,
579,
580,
581,
582,
583,
584,
585,
586,
587,
588,
589,
590,
591,
592,
593,
594,
595,
596,
597,
598,
599,
600,
601,
602,
603,
604,
605,
606,
607,
608,
609,
610,
611,
612,
613,
614,
615,
616,
617,
618,
619,
620,
621,
622,
623,
624,
625,
626,
627,
628,
629,
630,
631,
632,
633,
634,
635,
636,
637,
638,
639,
640,
641,
642,
643,
644,
645,
646,
647,
648,
649,
650,
651,
652,
653,
654,
655,
656,
657,
658,
659,
660,
661,
662,
663,
664,
665,
666,
667,
668,
669,
670,
671,
672,
673,
674,
675,
676,
677,
678,
679,
680,
681,
682,
683,
684,
685,
686,
687,
688,
689,
690,
691,
692,
693,
694,
695,
696,
697,
698,
699,
700,
701,
702,
703,
704,
705,
706,
707,
708,
709,
710,
711,
712,
713,
714,
715,
716,
717,
718,
719,
720,
721,
722,
723,
724,
725,
726,
727,
728,
729,
730,
731,
732,
733,
734,
735,
736,
737,
738,
739,
740,
741,
742,
743,
744,
745,
746,
747,
748,
749,
750,
751,
752,
753,
754,
755,
756,
757,
758,
759,
760,
761,
762,
763,
764,
765,
766,
767,
768,
769,
770,
771,
772,
773,
774,
775,
776,
777,
778,
779,
780,
781,
782,
783,
784,
785,
786,
787,
788,
789,
790,
791,
792,
793,
794,
795,
796,
797,
798,
799,
800,
801,
802,
803,
804,
805,
806,
807,
808,
809,
810,
811,
812,
813,
814,
815,
816,
817,
818,
819,
820,
821,
822,
823,
824,
825,
826,
827,
828,
829,
830,
831,
832,
833,
834,
835,
836,
837,
838,
839,
840,
841,
842,
843,
844,
845,
846,
847,
848,
849,
850,
851,
852,
853,
854,
855,
856,
857,
858,
859,
860,
861,
862,
863,
864,
865,
866,
867,
868,
869,
870,
871,
872,
873,
874,
875,
876,
877,
878,
879,
880,
881,
882,
883,
884,
885,
886,
887,
888,
889,
890,
891,
892,
893,
894,
895,
896,
897,
898,
899,
900,
901,
902,
903,
904,
905,
906,
907,
908,
909,
910,
911,
912,
913,
914,
915,
916,
917,
918,
919,
920,
921,
922,
923,
924,
925,
926,
927,
928,
929,
930,
931,
932,
933,
934,
935,
936,
937,
938,
939,
940,
941,
942,
943,
944,
945,
946,
947,
948,
949,
950,
951,
952,
953,
954,
955,
956,
957,
958,
959,
960,
961,
962,
963,
964,
965,
966,
967,
968,
969,
970,
971,
972,
973,
974,
975,
976,
977,
978,
979,
980,
981,
982,
983,
984,
985,
986,
987,
988,
989,
990,
991,
992,
993,
994,
995,
996,
997,
998,
999,
1000,
1001,
1002,
1003,
1004,
1005,
1006,
1007,
1008,
1009,
1010,
1011,
1012,
1013,
1014,
1015,
1016,
1017,
1018,
1019,
1020,
1021,
1022,
1023,
1024,
1025,
1026,
1027,
1028,
1029,
1030,
1031,
1032,
1033,
1034,
1035,
1036,
1037,
1038,
1039,
1040,
1041,
1042,
1043,
1044,
1045,
1046,
1047,
1048,
1049,
1050,
1051,
1052,
1053,
1054,
1055,
1056,
1057,
1058,
1059,
1060,
1061,
1062,
1063,
1064,
1065,
1066,
1067,
1068,
1069,
1070,
1071,
1072,
1073,
1074,
1075,
1076,
1077,
1078,
1079,
1080,
1081,
1082,
1083,
1084,
1085,
1086,
1087,
1088,
1089,
1090,
1091,
1092,
1093,
1094,
1095,
1096,
1097,
1098,
1099,
1100,
1101,
1102,
1103,
1104,
1105,
1106,
1107,
1108,
1109,
1110,
1111,
1112,
1113,
1114,
1115,
1116,
1117,
1118,
1119,
1120,
1121,
1122,
1123,
1124,
1125,
1126,
1127,
1128,
1129,
1130,
1131,
1132,
1133,
1134,
1135,
1136,
1137,
1138,
1139,
1140,
1141,
1142,
1143,
1144,
1145,
1146,
1147,
1148,
1149,
1150,
1151,
1152,
1153,
1154,
1155,
1156,
1157,
1158,
1159,
1160,
1161,
1162,
1163,
1164,
1165,
1166,
1167,
1168,
1169,
1170,
1171,
1172,
1173,
1174,
1175,
1176,
1177,
1178,
1179,
1180,
1181,
1182,
1183,
1184,
1185,
1186,
1187,
1188,
1189,
1190,
1191,
1192,
1193,
1194,
1195,
1196,
1197,
1198,
1199,
1200,

